 # Version information for this restart file 
 # current date 2023-12-06 13:14:51.995
 # current working dir /scratch/work/courses/CHEM-GA-2671-2023fa/students/tje3676/comp-lab-class/Week12/Runs/Water
 # Program compiled at                              Sat Dec 12 18:27:15 EST 2020
 # Program compiled on                                         cs001.nyu.cluster
 # Program compiled for                                                nyu-intel
 # Source code revision number                                       git:8c64c6e
 &GLOBAL
   PRINT_LEVEL  LOW
   PROJECT_NAME water_aimd_1ps_every0.5fs
   RUN_TYPE  MD
   WALLTIME 21600
 &END GLOBAL
 &MOTION
   &GEO_OPT
     OPTIMIZER  BFGS
     MAX_ITER  100
     MAX_DR     3.0000000000000001E-03
     &BFGS
     &END BFGS
   &END GEO_OPT
   &MD
     ENSEMBLE  NVT
     STEPS  2000
     TIMESTEP     4.9999999999999994E-01
     STEP_START_VAL  1500
     TIME_START_VAL     7.5000000000000762E+02
     ECONS_START_VAL    -1.1023558357480224E+03
     TEMPERATURE     3.0000000000000000E+02
     &THERMOSTAT
       TYPE  GLE
       REGION  MASSIVE
       &GLE
         NDIM  5
         A_SCALE     1.0000000000000000E+00
         A_LIST     1.8595758612559999E+02    2.7263853498399998E-01    1.1526100454610001E+01   -3.6414578262600003E+01 \
             2.3173375816020001E+02
         A_LIST    -2.7809524712060002E-01    8.5951591808710006E-05    7.2189048017650004E-01   -1.9844539343859999E-01 \
             4.2409257583420001E-01
         A_LIST    -1.4825808131210000E+01   -7.2189048017650004E-01    1.3590902121280000E+00    5.1498896280349999E+00 \
            -9.9949268450990001E+00
         A_LIST    -1.0372189126880000E+01    1.9844539343859999E-01   -5.1498896280349999E+00    2.6661910891169999E+01 \
             1.1507715495310000E+01
         A_LIST     2.1801346360420001E+02   -4.2409257583420001E-01    9.9949268450990001E+00   -1.1507715495310000E+01 \
             3.0958394565589998E+02
         &THERMOSTAT_ENERGY
              -4.0924491603645374E-03
              -1.3172973766966524E-03
              -1.5138456045093499E-03
               6.9077666363069239E-03
              -1.2693032437656569E-02
               5.7230694553473439E-03
               2.6330270976897994E-03
              -9.2023216995822023E-03
               1.4071245338551513E-02
               4.2195364345607349E-03
               9.5056426973272358E-03
              -4.4386867573551758E-03
               8.4652961535104979E-04
              -1.0213936480892754E-02
              -6.5335334112436049E-04
              -4.0464720320766232E-03
               1.4775502517868414E-02
               1.0925121074468447E-03
               7.6109432975987766E-03
              -5.8129334431953877E-03
               1.7864128370785634E-03
               1.6960694599146920E-03
              -1.0249261973067003E-03
              -3.3811450895544266E-04
               8.0562050767910768E-05
               1.2576781476195261E-03
               1.1363358431201926E-03
               2.0071074979465041E-04
               1.3254618392777863E-02
               2.3406124402452345E-03
               2.6255372598016418E-03
              -2.5318251254497562E-03
              -3.0771421242569625E-03
               3.1315465876240582E-03
              -1.6824268692189656E-02
               1.8101737770583350E-02
              -4.3826664658856349E-04
              -2.0386381860993596E-03
               1.3124244567747187E-03
               6.2065360415269038E-03
              -8.1316882398161355E-03
              -2.8295739612968565E-03
               7.7896459404754115E-03
               2.7891767020645272E-03
              -3.3040865655936495E-03
              -9.6743061223096381E-05
              -6.1648756213757226E-04
               4.1212478024932348E-03
              -8.3019821248754555E-04
               2.8196176861970757E-03
              -5.8987823059368115E-04
              -2.0821151379428623E-03
              -3.6882905229439844E-03
               2.8981700674706426E-03
              -6.3373671187674568E-03
               4.5114381644492663E-03
              -2.7358044140565353E-03
              -1.1708089764855436E-03
               8.2564932600931386E-04
               1.0790330712346542E-02
               1.9857755134655725E-03
              -1.3271864968289585E-02
               1.7222477388811143E-02
              -3.0024736843513862E-03
               4.1890930085534857E-03
               2.7681754686456199E-04
              -1.0023418567711702E-02
               3.7419143316979125E-03
               2.1181827419939021E-02
               3.1211652480743765E-03
              -1.7938361843056298E-03
              -1.2374668741691746E-02
              -1.3598314536285760E-03
               2.8914157200666445E-04
              -5.2800879700018628E-04
              -9.7678893064138215E-03
               4.3864232241725030E-03
              -1.6152939312987489E-03
               8.1692413463412827E-03
              -1.2914342828614705E-02
               1.9854497399429603E-02
              -3.5708817479859684E-03
               7.5351920802006213E-04
              -1.5302743037326268E-03
               5.2774196795555969E-03
               5.0466536174332477E-03
              -2.1897985255504406E-03
              -4.0066000465053958E-03
               4.4503887899672682E-03
               2.2997179091312548E-03
               1.0606372747209518E-03
              -8.5201962452039065E-03
               3.7172390154667713E-03
              -7.2830156590244360E-03
              -9.6269482419539445E-03
               8.5621422773843638E-03
               1.0580537438627613E-02
              -4.3776752730798835E-03
               4.9863927031514642E-03
               2.3332171791665556E-03
              -3.4575138895657710E-03
              -6.1253002399738457E-03
               9.1655233102677441E-04
              -1.8285995263826941E-03
              -3.6388949630533239E-03
               1.2129783852854709E-02
               2.8582066694040589E-04
              -2.4378531459740707E-03
               2.6820707992339294E-03
              -5.3165968535611946E-03
               3.4093288818595829E-03
               4.3249259522231782E-03
               1.3558294228703147E-03
               1.5250292715096609E-03
               6.3139318654627111E-03
               4.9087066584263903E-03
              -1.4765800007440976E-02
               3.1468501748940876E-03
               6.8069876979549807E-03
               3.3365537886258017E-03
               1.0891586301196894E-02
              -4.7051972323902038E-03
              -3.0854493887127210E-03
               4.3312983437385905E-03
              -7.3726019280745229E-03
              -1.6498729000650964E-03
               6.4721815409701658E-03
               2.3249155363708277E-04
              -2.1024605415068546E-03
               5.7221041713126060E-04
              -2.1315395956369872E-03
               4.9610899499538596E-03
              -9.1230023356897397E-03
               6.1825493573951038E-03
               3.6402558576846002E-03
              -3.6331658812842837E-04
              -2.8390696114446120E-03
              -4.3582247518216405E-03
               5.2841569503081082E-03
              -2.3639737815699191E-03
               6.1959063360499866E-03
              -8.4518873221606277E-05
               1.6030344727466408E-02
              -5.6966696695394392E-03
              -4.9980530506995597E-03
              -2.4159840498431469E-03
               8.4702631185198975E-03
               3.9803556449224294E-03
               6.3583908205899591E-04
              -5.0722745310739807E-03
              -1.2796089647996910E-02
               3.1398076663453896E-03
               4.6500272181888187E-03
              -8.1157353296933583E-03
               9.2148049034235392E-03
              -1.3854390151110494E-03
               4.3901328537323040E-04
               6.9583958486000045E-04
               2.5460928671590025E-04
              -2.2318336728406212E-03
              -1.6017749362394530E-03
              -5.2052209613212717E-03
              -5.2463681715513933E-04
               1.1508773330108858E-03
               3.4402797986483142E-03
               1.0725730486774346E-02
              -3.4331737988308195E-03
              -6.2934121626035400E-03
              -6.7705772934303372E-03
               1.0348935142507953E-02
              -1.8593165119964827E-03
              -2.7634173999202204E-03
              -7.3733783928556034E-04
              -3.9880287362143857E-03
              -2.4513517084974621E-03
               5.4812529166680477E-03
              -9.1435263711497055E-03
              -4.6584997336785285E-04
               8.9116263444795221E-04
               5.8460928850090224E-03
              -3.8572450831267278E-03
               1.1219836783076735E-04
               5.9886869669965098E-03
              -1.7845448085295347E-02
               1.2061174629035810E-02
              -9.2103716729358910E-05
              -2.4867398208490428E-03
              -1.5843658570807843E-03
              -2.0025905335022058E-03
              -7.0348607391752547E-05
               1.2112307306949698E-03
              -4.1372023920919576E-05
              -8.4161488119881833E-03
               9.4031216174396241E-03
               6.1606424323069914E-03
              -7.2847907225685972E-03
              -4.8510165250504438E-03
               3.3260850935410589E-03
              -2.2569920219926544E-03
              -1.5413933109701728E-03
               4.2603146319835207E-05
              -2.7371072897633200E-03
               1.1583328883626216E-02
              -2.2491787745240245E-04
              -4.5021381603416646E-03
               1.4257886135574254E-04
              -5.2050855119552203E-03
              -1.0504958822490641E-04
               1.0013975290853571E-03
              -1.2709149237774813E-03
               9.4451610650508368E-03
              -8.5834513337686973E-03
               1.4264752668159875E-02
              -8.5077412959943671E-03
               3.7524070442815530E-03
               4.3124168000289453E-03
              -9.3402937623593540E-03
               7.1034206004027224E-03
              -1.5409340466474714E-03
              -1.3388911368748592E-02
               2.5812198004764738E-03
              -1.6061268412539048E-04
              -4.9564520388408492E-04
               7.4832189829630250E-03
               4.4461753137485418E-04
               6.1975835872312009E-04
               6.5381747211949661E-04
               3.4109400005186347E-04
              -4.2731801728350541E-03
               6.3640276565050634E-03
              -1.0534110918526046E-02
               2.7859089660827669E-03
               8.9846905820488709E-03
              -8.2549447767640925E-03
               4.0705121511768576E-03
              -2.3791374089283000E-03
              -2.5300703584156788E-03
              -4.7123890437707531E-04
               8.9064601457536727E-03
               5.5690378143222682E-03
              -3.1098724661895229E-04
              -4.3716185213145114E-03
              -1.6449347655277434E-03
              -2.0380093654529339E-03
              -1.3977272142131484E-03
               3.2352660009639524E-04
               7.8933957901804012E-03
              -4.2670842107495784E-03
              -1.1973411220962318E-03
               3.1825489366898935E-03
               3.2545213215775183E-03
              -4.4258162613828667E-03
              -7.1363152316884755E-03
              -7.8072398974003013E-03
               3.7638106134529475E-03
              -3.1073973928443222E-03
               7.0994255834572464E-03
              -5.0472438445968489E-03
               9.4059924000599558E-03
              -1.2333904119541429E-02
               1.8256254676310351E-02
               1.0188990784428026E-04
               6.3180651193073846E-03
               1.4520176039757207E-03
               2.6453535884599618E-03
              -1.0227592056245027E-02
               4.5730602807818278E-03
              -3.1530099052941734E-03
              -3.6187150788621883E-03
               8.1727062256686366E-03
              -5.1143064117336748E-03
              -3.8960146259408015E-03
               4.5170848788769645E-03
               1.4209658209891604E-02
              -2.9838898685910346E-03
               2.3137074159103291E-03
              -2.9667069487226593E-02
               1.7028741035351375E-02
              -4.3527890958181112E-04
               9.0867882701140285E-03
              -7.7658816996995401E-03
               2.8141811285029173E-03
               1.5083310125039932E-02
              -3.6313766876142819E-03
              -9.6930321461317186E-03
              -7.0591592976489070E-03
               9.7328941334579077E-04
              -4.6652534172804188E-03
              -3.0331481467249784E-03
              -2.4054616115096305E-03
              -6.3769628207847135E-04
               1.5489930515610439E-02
               1.3069917179004300E-03
              -6.9372793823827090E-03
              -1.9392582905197195E-03
               3.8783928849579381E-03
              -1.1502863596197954E-02
              -4.4517034746531341E-03
              -2.0868331834393451E-03
              -4.4916868488869008E-03
              -7.9538038899098634E-03
               8.5486371542458847E-03
               3.1416532972681605E-03
              -2.8759385215804253E-03
               8.0862453497783301E-03
              -1.1889521979053908E-02
              -6.0329621429872245E-04
              -2.5287199205885026E-03
               1.8239401503861207E-04
               1.5456750982136865E-02
              -8.2317804573075644E-03
              -1.0414922905418341E-02
               7.9574956870956219E-03
               8.8258787615171710E-03
              -5.3639818352367100E-03
               1.2819300612688248E-02
               1.7228802556938786E-03
               4.1992991378402966E-03
              -1.0714211455534991E-02
              -5.5824633623886731E-03
               1.3659612210378480E-02
              -5.6274603012980429E-03
              -1.3093096589553599E-02
               1.4818436520748194E-02
              -3.9396269370709667E-03
               5.6716209796053157E-03
               4.0346783174812174E-03
               8.7018302315456015E-04
              -6.2062736590737747E-03
              -8.0923479877113950E-03
              -1.6000816380840434E-03
              -1.4187828525041262E-02
               1.3672165330329986E-02
              -1.1656713902440524E-03
               5.1588747753884868E-03
               2.7353984383520786E-03
               1.3168041831542958E-02
               3.7228240234286817E-03
              -1.0011690680792400E-02
               1.3532863650349114E-02
               3.0928166029002917E-03
              -1.2983784630516318E-02
               2.8353831570632334E-03
              -3.2293533701367332E-03
               4.5161135934905641E-04
              -9.5591656538520225E-03
              -9.7542311101338577E-04
              -1.9756471432159876E-04
               1.2060678653036383E-03
               3.8478152351093492E-03
               3.6944715452673577E-03
               5.2428503799154596E-03
              -9.9899323401987199E-03
              -4.2188661454602323E-04
              -7.7637980776419282E-03
               1.3162700601115952E-02
              -2.6264098151386468E-03
              -3.5151396195304140E-03
              -3.6012528669417273E-03
               3.4504352330185003E-03
               7.8346193411257922E-04
              -1.7639273314985124E-03
              -1.1482358334814986E-02
              -6.3160817130884818E-03
              -1.5257120045084210E-03
               1.6759566809928191E-02
               5.4427065126180603E-03
              -4.4632447142330129E-03
              -8.6447240812834308E-03
              -2.7399494987080429E-03
               2.9380732088696532E-03
              -1.5840814761951146E-03
              -1.2222316817343706E-03
               3.5386668891305359E-03
              -6.5841418587805163E-04
              -1.8262202938815141E-03
               2.9724910568809464E-03
              -3.5273502972554588E-03
              -2.4619078132284552E-03
               2.9812956523065379E-03
               3.3851386664684917E-03
              -3.9892008566943631E-03
               2.1244182084923621E-02
              -1.0101750187689054E-03
              -1.8539355236452969E-02
               1.5644526115215489E-02
              -3.7848365368190933E-03
              -7.4912725975577648E-03
              -5.2685104911134352E-03
               5.5153486309106022E-04
              -1.0589466015857571E-02
               2.2855173692622681E-02
              -4.4164090500910776E-03
               1.1885713109373904E-05
              -8.0356875364563461E-03
               1.7661736793775421E-03
              -4.2783766607627643E-03
               2.4620056181661179E-03
               4.6633073086746130E-03
              -1.5056268267848155E-02
               6.1151912013983397E-03
               6.4011724567929395E-03
              -1.2723594636722332E-02
               8.7134275825181354E-03
               1.3735558124619069E-02
               1.6216727391904283E-03
               4.7792739011258169E-03
               7.1132782075086888E-03
              -9.6927043701489947E-03
               5.9960558640106687E-03
               6.5754318129023813E-03
              -1.1444918365259896E-03
              -8.1114163117757057E-03
              -6.3745884430152500E-04
              -6.6829120544343928E-03
              -8.8576578610673683E-04
               5.7914408517182759E-03
               2.8488833011665621E-03
              -9.5940050825547608E-03
               9.7233251365343980E-03
              -3.1526157089134220E-03
              -2.4278991602466645E-04
              -1.5471886316265214E-03
              -1.4466145575856070E-04
               1.0937395080652626E-03
              -6.2940893559404975E-04
              -3.6458745527194985E-03
               1.6497374165197901E-03
              -5.0490459546794347E-03
               2.4577087690001351E-04
               1.0324588999329453E-02
              -1.0140961444025345E-02
              -2.6891062615620764E-03
              -4.3815226278817870E-03
               6.8111547527596513E-03
              -1.0654505867932694E-02
              -2.4439976866323333E-03
               8.4724426042896497E-03
              -1.9827475052701404E-03
               8.2198739787403882E-03
              -8.0680094073282312E-03
              -1.2305364803548434E-02
              -6.9347480229932913E-05
               5.4025205741521859E-03
              -8.8697182984087269E-03
              -7.6110386611214949E-03
               1.6298123622228889E-03
               9.2895094255407377E-03
               9.0154624980390338E-03
              -4.6613824304544312E-03
              -4.3516572367165015E-03
              -5.0538687567979051E-03
               1.7428259580055626E-03
              -1.5172076518236535E-04
              -5.2647553059308929E-03
              -1.1673087890049328E-02
               2.1692976159453051E-02
               2.8931285945711189E-03
              -1.1917524844302070E-02
              -6.0588220955739005E-03
               4.6331417150898566E-03
              -3.5341539458167773E-03
               3.6107650334736233E-03
              -9.0446503789900318E-04
               5.8834952354420251E-04
               5.8388328751935630E-03
              -7.6755366084753562E-03
               1.7857953181186488E-03
              -3.8970380164770405E-03
               2.3723805144368225E-03
               1.1271460915822434E-03
               9.2617963554577996E-03
               5.1335429619586888E-04
              -2.0463605130907553E-03
               9.4045969417217345E-04
               9.5741249646852933E-03
               6.6270381426043823E-03
              -9.0381073601225701E-05
              -3.8814712552180889E-03
               2.1918483767296134E-03
              -1.1241707099628760E-02
               1.2098343629023959E-02
               3.3804351789865035E-04
               6.1359552741341635E-03
              -7.0233995207826597E-03
              -4.6094630494381613E-04
              -3.3544268466315606E-03
              -3.3963180621890054E-03
              -1.1419975161532365E-03
               1.1863973839920045E-05
               3.1502076339638354E-04
               2.7169924496726872E-04
               7.7947744149752815E-03
               6.6637830693994891E-03
              -1.1088298252221650E-02
               2.7957200356636481E-03
               9.2447523094530402E-04
              -3.1384899558119678E-04
               4.2267312810354077E-03
               7.0579982440123114E-03
               1.2784515650788952E-03
              -2.5738837701690581E-04
              -8.8594470008220398E-03
              -5.9429127725433182E-03
               3.1168767031449010E-03
              -4.3858835819684684E-03
               1.4390899663106864E-03
               1.1076855523147854E-03
               3.5389300568779976E-03
               8.7954066383546961E-04
              -3.8464072367530139E-03
               1.0904565782593054E-02
              -1.3142490758475798E-02
              -4.7205726229616559E-04
               1.6466949128534082E-05
              -1.6866649786690269E-03
              -8.2301518521209569E-03
              -2.9796003540565235E-03
               8.3251221542696083E-03
               3.6513241217296264E-04
               3.5036168206609916E-03
              -8.9494738258470482E-03
              -1.0221085648735188E-02
               1.5255483581880022E-02
               3.4200254402665595E-03
              -1.2013743091788914E-05
              -1.5158147395585679E-03
              -1.4943279010819970E-02
               7.9053696768249526E-03
               1.7504609082133818E-03
              -1.3668252144030141E-02
               1.1433389184163415E-03
              -5.8070928686385775E-03
              -3.7690384142385607E-03
              -3.0509369745730227E-03
               1.3014628860121660E-02
               4.0541912550683416E-04
              -2.2678370859647999E-03
              -6.1722406889633983E-03
              -6.6335010650387402E-04
              -6.5367763961059764E-04
               3.1348106813996368E-03
               1.2833603886634715E-03
               3.5997175511150994E-03
              -5.0214468771953610E-04
               1.7413855359583483E-03
               1.0211147542416603E-02
               4.0719858072550486E-03
              -6.5150848725866748E-03
               1.0399553743598031E-03
               5.2460978781767387E-03
              -2.8047958318199763E-03
              -1.5315683890610552E-03
               1.0635240358540804E-02
              -5.9932974892471739E-03
              -1.3189926819812100E-02
               2.0169646832276138E-03
               4.3876508692300203E-03
              -5.6272399934496800E-04
              -3.8549679852435375E-05
              -1.0526211780690052E-03
              -5.5452399513791634E-03
               5.9860512304674444E-04
               2.9806420886286968E-03
              -2.6469741619198784E-03
               8.4882604687748758E-03
               6.4986645977648514E-04
              -9.9746634369047801E-05
               3.1742566354148543E-03
              -3.3002874960318443E-03
              -2.9860212354723215E-03
               2.5937999724529219E-03
               3.9676963020744338E-03
              -6.1212587136861326E-04
              -3.0013241098339412E-04
              -1.8889364103935674E-03
         &END THERMOSTAT_ENERGY
         &RNG_INIT
Wiener process for Thermostat # 1        1 F T T   1.0570193072987602E-01        2554248455.0        3733268398.0        2096963647.0         915983833.0        1292997779.0         989563289.0             12345.0             12345.0             12345.0             12345.0             12345.0             12345.0             12345.0             12345.0             12345.0             12345.0             12345.0             12345.0
Wiener process for Thermostat # 2        1 F T T  -5.0729818522276993E-01         187792199.0        1332764939.0        1272087322.0         282682701.0         988697858.0        4086000388.0        3692455944.0        1366884236.0        2968912127.0         335948734.0        4161675175.0         475798818.0        3692455944.0        1366884236.0        2968912127.0         335948734.0        4161675175.0         475798818.0
Wiener process for Thermostat # 3        1 F T T   8.9774137220556466E-02        3755061031.0        1753083868.0        1351179932.0         343881147.0        3312142877.0        1244557929.0        1015873554.0        1310354410.0        2249465273.0         994084013.0        2912484720.0        3876682925.0        1015873554.0        1310354410.0        2249465273.0         994084013.0        2912484720.0        3876682925.0
Wiener process for Thermostat # 4        1 F T T   2.1447125495896904E-01        2430503636.0         902227617.0        3039217662.0         205693714.0        2375800914.0        4220709598.0        2338701263.0        1119171942.0        2570676563.0         317077452.0        3194180850.0         618832124.0        2338701263.0        1119171942.0        2570676563.0         317077452.0        3194180850.0         618832124.0
Wiener process for Thermostat # 5        1 F T T  -7.4974817695318574E-01        3949927612.0        4293465109.0         224208328.0         677588237.0        2173092809.0        2514687022.0        1597262096.0        3906379055.0        3312112953.0        1016013135.0        4099474108.0         275305423.0        1597262096.0        3906379055.0        3312112953.0        1016013135.0        4099474108.0         275305423.0
Wiener process for Thermostat # 6        1 F T T  -2.3195632299180402E+00        4147399821.0         968438491.0         174961265.0         382156541.0        3672303660.0        2385050302.0          97147054.0        3131372450.0         829345164.0        3691032523.0        3006063034.0        4259826321.0          97147054.0        3131372450.0         829345164.0        3691032523.0        3006063034.0        4259826321.0
Wiener process for Thermostat # 7        1 F T T  -8.3038096976097500E-03        3725962017.0        3124905816.0        1692649901.0        3685368087.0         990134651.0        3321809881.0         796079799.0        2105258207.0         955365076.0        2923159030.0        4116632677.0        3067683584.0         796079799.0        2105258207.0         955365076.0        2923159030.0        4116632677.0        3067683584.0
Wiener process for Thermostat # 8        1 F T T   7.2955713326517235E-01        1426374835.0        1022225665.0        3431852557.0        2945126969.0        1347790872.0        2047858768.0        3281794178.0        2616230133.0        1457051261.0        2762791137.0        2480527362.0        2282316169.0        3281794178.0        2616230133.0        1457051261.0        2762791137.0        2480527362.0        2282316169.0
Wiener process for Thermostat # 9        1 F T T  -8.3876742673612970E-01        3633457436.0         863053678.0         665967915.0         928783000.0        4027924725.0        3556250224.0        3777646647.0        1837464056.0        4204654757.0         664239048.0        4190510072.0        2959195122.0        3777646647.0        1837464056.0        4204654757.0         664239048.0        4190510072.0        2959195122.0
Wiener process for Thermostat # 10       1 F T T  -6.7138423863751628E-01        3282585865.0         909372753.0         488063086.0        2442536289.0         174422437.0         477575080.0        4215590817.0        3862461878.0        1087200967.0        1544910132.0         936383720.0        1611370123.0        4215590817.0        3862461878.0        1087200967.0        1544910132.0         936383720.0        1611370123.0
Wiener process for Thermostat # 11       1 F T T  -7.2169956836733329E-02        3039538231.0          25912629.0        1608189467.0        1823124278.0        2331127605.0        2449500504.0        1683636369.0         362165168.0         814316280.0         869382050.0         980203903.0        2062101717.0        1683636369.0         362165168.0         814316280.0         869382050.0         980203903.0        2062101717.0
Wiener process for Thermostat # 12       1 F T T  -6.7722400494670465E-01        2762226669.0        4262778377.0        2250707948.0        3120407528.0        3704866228.0        1185520965.0         272317999.0         166758548.0         310112982.0         201045826.0        1680231254.0         118290799.0         272317999.0         166758548.0         310112982.0         201045826.0        1680231254.0         118290799.0
Wiener process for Thermostat # 13       1 F T T  -7.3817531449270457E-01        3689403510.0         367299738.0        3636386471.0        1925893934.0        3355800516.0        3520562622.0        2245755202.0        1652682525.0        2865544364.0         721509566.0         209733568.0         592362218.0        2245755202.0        1652682525.0        2865544364.0         721509566.0         209733568.0         592362218.0