 # Version information for this restart file 
 # current date 2023-12-06 14:41:59.644
 # current working dir /scratch/work/courses/CHEM-GA-2671-2023fa/students/tje3676/comp-lab-class/Week12/Runs/Water
 # Program compiled at                              Sat Dec 12 18:27:15 EST 2020
 # Program compiled on                                         cs001.nyu.cluster
 # Program compiled for                                                nyu-intel
 # Source code revision number                                       git:8c64c6e
 &GLOBAL
   PRINT_LEVEL  LOW
   PROJECT_NAME water_aimd_1ps_every0.5fs
   RUN_TYPE  MD
   WALLTIME 21600
 &END GLOBAL
 &MOTION
   &GEO_OPT
     OPTIMIZER  BFGS
     MAX_ITER  100
     MAX_DR     3.0000000000000001E-03
     &BFGS
     &END BFGS
   &END GEO_OPT
   &MD
     ENSEMBLE  NVT
     STEPS  2000
     TIMESTEP     4.9999999999999994E-01
     STEP_START_VAL  1999
     TIME_START_VAL     9.9949999999998238E+02
     ECONS_START_VAL    -1.1023558357480224E+03
     TEMPERATURE     3.0000000000000000E+02
     &THERMOSTAT
       TYPE  GLE
       REGION  MASSIVE
       &GLE
         NDIM  5
         A_SCALE     1.0000000000000000E+00
         A_LIST     1.8595758612559999E+02    2.7263853498399998E-01    1.1526100454610001E+01   -3.6414578262600003E+01 \
             2.3173375816020001E+02
         A_LIST    -2.7809524712060002E-01    8.5951591808710006E-05    7.2189048017650004E-01   -1.9844539343859999E-01 \
             4.2409257583420001E-01
         A_LIST    -1.4825808131210000E+01   -7.2189048017650004E-01    1.3590902121280000E+00    5.1498896280349999E+00 \
            -9.9949268450990001E+00
         A_LIST    -1.0372189126880000E+01    1.9844539343859999E-01   -5.1498896280349999E+00    2.6661910891169999E+01 \
             1.1507715495310000E+01
         A_LIST     2.1801346360420001E+02   -4.2409257583420001E-01    9.9949268450990001E+00   -1.1507715495310000E+01 \
             3.0958394565589998E+02
         &THERMOSTAT_ENERGY
              -1.6682011015851663E-03
              -1.8487274972216724E-03
              -6.3064054596461230E-04
               7.8130447041052410E-03
              -1.2292012221400986E-02
               2.0186608266966307E-03
              -6.2139908498033832E-04
              -6.2274570027747765E-03
               1.8048866682565903E-02
               3.0830469815622437E-03
               1.2782493381392033E-02
               9.5572296660238049E-04
              -7.7761966419411313E-03
              -6.4680532632971979E-03
              -2.9054222579052275E-04
              -7.9454480897879678E-03
               1.8269293774554485E-02
              -2.3338590060445661E-03
               6.4530267114055366E-03
              -6.5347369084914429E-03
              -2.9227932544734535E-03
               4.5985360156219129E-03
              -1.0508626727030956E-02
              -4.3557888245397951E-03
               2.9676762489903143E-03
               2.8560359060362363E-03
               3.3221924102780540E-03
               1.2777781014853468E-03
               1.1585725417477851E-02
               2.2482841923956959E-03
               2.5034033017056288E-03
              -3.6991659499326897E-03
               3.0644474513168984E-03
               2.7615930521338568E-03
              -1.3885630692773992E-02
               1.4598362193717455E-02
               3.2039171696666736E-03
              -3.4815180467539699E-03
               1.4463955533496025E-03
               6.9402541669502382E-03
              -5.5336255829935019E-03
              -7.9907204285150253E-03
               8.7188703041678420E-03
               4.5540691896902167E-03
              -1.6206044562912280E-03
               1.8431893397852809E-03
              -9.0308200148290986E-04
               6.7286267394647253E-03
               5.9912523775754629E-03
               1.9476795018591867E-03
              -2.8022638959985797E-03
               2.6559125075234320E-03
              -7.7486361026770558E-03
              -7.0263098043154833E-04
              -6.0099154486550153E-03
               4.7552469763869395E-03
              -3.5186756747336498E-03
              -4.0496669598829799E-03
              -8.7040442850573065E-04
               1.9198226036208361E-02
               2.5144867854690360E-03
              -8.8842499044878721E-03
               1.6951421929446670E-02
              -5.1966468320221925E-03
               5.0143327149530783E-03
               2.1692861938204886E-03
              -8.6600354196452751E-03
               5.3707556724615886E-03
               2.1420160593517656E-02
               1.5876678138735552E-03
              -2.0884981298690103E-03
              -1.4272777448363520E-02
              -1.3864263213294726E-03
               2.4137443254566107E-03
              -2.8523887215157280E-04
              -9.6987583592154335E-03
               2.4443438416044756E-03
               3.9920783471526057E-03
               6.0493790736233155E-03
              -9.4449325345526847E-03
               2.0153797388660386E-02
              -3.9004137104945206E-03
               2.7998877955616409E-03
               1.3854572660098590E-03
              -1.7076545936452611E-03
               9.7409373439246404E-03
               3.2677884599244043E-03
              -7.6426194818857707E-03
               3.2891500242934273E-03
               1.1238916561351787E-04
               3.8995053461919529E-03
              -9.5647148182487936E-03
               7.6810209950522654E-04
              -7.6529869730855189E-03
              -7.7676976610290792E-03
               4.1905734285712553E-03
               1.0903552026158123E-02
               6.9908445638620996E-04
               4.9292680242230468E-03
              -6.7149913332881879E-04
              -1.3446899494401472E-03
              -1.0169060901452615E-02
               4.5512823767112007E-03
              -3.0372460710589321E-03
              -2.3581660219809490E-04
               1.4440770413902855E-02
               8.8876461964274153E-04
              -3.9491623762466684E-03
               2.4637602484427353E-03
              -6.0548406238590639E-03
               3.3832527460321451E-03
               6.3152502141881105E-03
              -3.2633878979172323E-03
              -6.4894190165041971E-03
               8.1823010970520291E-03
               6.0722315081531237E-03
              -1.5609573694662506E-02
               6.2514572667373919E-03
               4.3768251907232011E-03
               7.9117034578363998E-03
               8.5738133352623036E-03
              -4.4252919788616528E-03
              -1.9265026389539198E-03
               6.0713141995297447E-03
              -9.3367844480071269E-03
              -2.0717490181963246E-03
               3.5388216825620314E-03
               5.1141448236613528E-04
              -3.7140163533572147E-03
               5.1543597504589362E-03
              -4.1697337904383841E-03
               5.4371243853857179E-03
              -1.2337152895412495E-02
               6.3510007627803526E-03
               1.8663720525192626E-04
              -1.0126852381119451E-04
              -3.7205589764806196E-03
              -5.7776310252333702E-03
               2.7205986079849110E-03
              -2.6000393508782273E-03
               3.4642208068031807E-03
              -4.6380087604962882E-03
               1.6303304483492671E-02
              -5.0790168272612209E-03
              -6.7534752522639616E-03
              -1.6040814731427327E-03
               5.6009884657674744E-03
               1.0600537089459653E-02
               2.8534037737746975E-03
              -4.6813264433176018E-03
              -1.6967646311741039E-02
               7.6387998206716295E-03
              -3.1491458104843394E-05
              -5.9994223798468397E-03
               1.0187142545921620E-02
              -1.4954379389219004E-03
              -1.3783337054721497E-03
               4.8146828650754599E-03
              -1.3100945055518468E-03
               2.0404987841359380E-03
              -1.0628563844004119E-02
              -8.6067187306572684E-03
              -9.8046095678990712E-04
               1.3709904238974580E-04
               9.4785610128577651E-03
               1.2377474034223934E-02
               2.6034600936541427E-03
              -2.0888845962985198E-02
              -6.4688816839089851E-03
               1.3371028970871114E-02
              -3.8288975188100027E-03
              -3.1244652142631228E-03
               1.1638932444614628E-03
              -5.4041674593727010E-03
              -4.0071399646911393E-03
               2.2124454967965591E-03
              -7.9049369742491948E-03
               2.0572740483671757E-03
               3.8981855700279035E-03
               8.2851061012317387E-03
              -2.9266607824708886E-03
               4.9912629243428731E-04
               7.1806344864431253E-03
              -1.8806084342158007E-02
               1.1318665030010756E-02
               1.1496883765732950E-03
              -4.4625370227775350E-03
              -5.5475308218515121E-04
              -1.9574453945771656E-03
              -3.9991919974039788E-04
               4.0237288607347377E-03
               1.6496765445485093E-04
              -1.2081331511541896E-02
               8.5563947046250911E-03
               9.5516518791488557E-03
              -8.1746635564058368E-03
              -7.2515753600635837E-03
               2.2573387984373347E-03
              -4.6075798106852027E-03
              -4.6149872979741029E-03
              -1.7617641169803621E-03
              -2.1468489332368387E-03
               1.6953213112255852E-02
              -4.3976993858188601E-03
              -6.1764392456044176E-03
              -7.3706417443578629E-04
              -4.0971537941633046E-03
              -1.0664955627116570E-03
              -1.6309614503071594E-03
              -3.7624247707548387E-04
               1.3832712557022644E-02
              -7.7416667214555805E-03
               1.0703788248972916E-02
              -5.9632327797530978E-03
               5.5111202835765906E-03
              -2.4203646969494790E-03
              -1.4434982923319061E-02
               9.8236125172959012E-03
               3.1253167003627209E-03
              -1.7196300954315662E-02
              -3.9001135077386616E-03
               6.6958229876902596E-04
              -3.1166939324859741E-04
               1.7523885645838982E-02
              -2.8941098665087651E-03
               1.5503603395569578E-03
               2.8457033201824584E-03
               9.3856101446894631E-04
               4.8833812905887813E-03
              -3.5631885928091829E-03
              -1.2374185789135995E-02
              -1.5727115337867926E-03
               1.4243700722206818E-02
              -5.4639818791955147E-03
               1.3629258875777700E-03
               4.0545882515877216E-03
               4.5090498131589857E-04
              -2.7939924021270798E-03
               1.2783543657104816E-02
               7.2368792956420055E-03
              -5.3870355964779218E-03
              -8.8734310843439634E-03
              -7.4243218883740070E-04
              -3.8040294054331541E-03
               3.6405986041431679E-03
               3.8372301036453333E-03
               5.9005554700938588E-03
              -3.7913025893118609E-03
               7.7623417446938923E-04
               2.7699988015847570E-03
               6.8618791125232481E-03
              -1.2021595497494054E-02
              -7.0652418342394153E-03
              -7.2380416406027659E-03
               6.0640294250566395E-03
              -8.8881056146619198E-04
               7.6616221815383311E-03
              -3.7468204425825879E-03
               1.6005335830813757E-02
              -2.1540624949702148E-02
               2.1514779985443194E-02
               1.3527713996008912E-03
               1.9812220417736231E-03
              -6.5278504578730441E-04
               4.2507873671852802E-03
              -6.7567284355898221E-03
               5.4818230296387743E-05
              -5.8797471726621852E-03
               7.3291417952428615E-04
               7.3145305092937700E-03
              -1.9865265935635865E-03
              -5.0090466760582915E-03
              -1.0305783253153171E-03
               1.1433291363463599E-02
               4.1774590428215290E-03
               2.1128739247249688E-03
              -2.8287716322050720E-02
               2.4089306141526542E-02
              -6.8275612042038650E-03
               7.4604478839442514E-03
              -7.4495008423176431E-03
               1.5756204237171037E-03
               7.9214629803197427E-03
              -4.3138425640293120E-03
              -3.9503258775486693E-03
               4.9858377674619880E-03
              -1.3079972150379566E-03
              -1.0640356678482196E-02
              -2.2041550947938496E-03
              -6.9491961606574812E-04
              -2.9381479458867018E-03
               1.4596960383948480E-02
              -1.9387914792322039E-03
              -7.2369009797027366E-03
               1.8870841937811047E-03
               1.1196916774299475E-02
              -1.2516469016334989E-02
              -1.6243735085892815E-03
              -5.1611772417286799E-03
               3.5452537410230123E-04
              -1.0954674893698623E-02
               3.7105643366383816E-03
               7.4229197630214638E-03
               1.3227353198071190E-03
               8.0300544668271100E-03
              -1.1586642671752714E-02
              -2.4311559969394320E-03
              -1.3869005902284726E-03
              -2.0504049962860988E-03
               1.6442864586558591E-02
              -6.9758311652328301E-03
              -6.4715373569388781E-03
              -3.8762412499687158E-03
               1.2885696980273899E-02
               1.3006003677629267E-03
               1.1849502974426440E-02
               2.4709661087019131E-03
               2.3170307808785991E-03
              -7.6768956867146534E-03
               1.2639694267514859E-03
               1.1509067150056486E-02
              -1.5478154131594868E-02
              -1.4808479407689848E-02
               1.6848941936096127E-02
              -7.6720289380703410E-03
               1.0523729615796219E-02
               9.6878712705224875E-04
               4.2644793042631449E-03
              -3.3800975833365547E-03
              -1.0781741801671417E-03
              -1.4590320678300205E-03
              -1.5892205381986602E-02
               6.9549305632389431E-03
              -2.9309023602705118E-03
               5.5793284241621470E-03
               5.1622337157537267E-03
               1.3782948648303475E-02
               1.6294167576171533E-03
              -1.2936465693095511E-02
               1.1799737169028449E-02
               3.2287442120353541E-03
              -7.9009849158452623E-03
               3.0162569249585166E-03
              -7.0980951007952103E-03
              -7.8573307313968023E-04
              -4.9171517068135155E-03
               3.6188027538385447E-04
               8.2896990307659564E-04
               9.7291386874730854E-03
               2.5442058090138801E-03
               1.4737083939879987E-03
               4.4222775967870968E-03
              -8.0502939772749624E-03
              -2.8347725799134603E-03
              -1.5298166171426708E-02
               1.2916854999738263E-02
               3.6789757166236082E-03
              -8.4964907038480204E-03
              -1.3204542163100455E-02
               1.5346188253384995E-02
               2.5189331982344155E-03
              -3.9945863944326806E-03
              -1.1174986995622724E-02
              -5.0049235664995041E-03
              -3.5724709113998786E-03
               1.7043287266012140E-02
               1.1226369418657445E-02
              -5.4745847945983812E-03
              -1.1528385566407852E-02
              -3.9237187374515457E-03
               2.4174177078956794E-03
              -2.5466695466046644E-03
               4.0929312048728558E-03
               8.7936509348445040E-03
              -4.5756703325898146E-03
              -6.0191396545485921E-04
               5.6284309325884685E-03
              -8.8047868024688537E-03
              -2.8866633473686233E-03
               6.2575182441997907E-03
               2.1517795133724404E-03
              -1.9420337854534260E-03
               2.0128627525549413E-02
              -6.2833595194787019E-03
              -2.1138956181944713E-02
               8.5049607805957519E-03
               2.0879486194253496E-03
              -9.5314283042214633E-04
              -5.3248215414636079E-03
              -7.6713951023358348E-04
              -9.2399375160668925E-03
               1.9400209954622979E-02
              -2.1525406250555942E-03
              -7.1730536202390593E-03
              -2.5491734246816476E-03
               1.3268599487201067E-03
              -7.0845206346155419E-03
               8.4484383716674320E-03
               5.7066722713779751E-03
              -2.8282493226643720E-02
               1.1901119144514751E-02
               7.2047357923231588E-03
              -7.6754221699921257E-03
               6.5299049857186929E-03
               2.1239332731234729E-02
              -2.6220240753189143E-04
               6.9040365811891104E-03
               6.1291600651830966E-03
              -6.6418537538680386E-04
               3.0263676439826791E-03
               9.4639805883788182E-04
               1.8502517187677055E-03
              -1.2403494658812745E-02
               6.4941539321723696E-03
              -6.6462529749141434E-03
              -2.4995175528261070E-04
               2.9088936253947898E-03
              -2.6946982793617361E-03
               1.8805704768702476E-04
               3.9398969279412534E-03
               2.3704876003587669E-04
              -2.9820946596776643E-03
               2.1589276649592805E-03
               6.4519635578455005E-04
               2.3714368810679480E-03
               1.7224082168263721E-03
              -1.0275995529282446E-02
               6.3642215961992642E-03
              -6.9896397513230677E-03
               4.1408944192221700E-03
               9.0573160490690606E-03
              -9.6989662134804450E-03
              -4.7053177414996374E-03
              -6.9568520334343537E-03
               5.9531573083709795E-03
              -1.1945068594430484E-02
              -5.5902147777929416E-03
               1.0708157329437121E-02
              -7.4701475219118955E-03
               9.2141727152768287E-03
              -9.1392933376042880E-03
              -1.4737796689436455E-02
              -1.8971179940787536E-03
               5.3862353539700057E-03
              -9.7684769349714960E-03
              -7.3680349464718235E-03
               4.1866085445298835E-03
               6.9464894421567593E-03
               1.2417869830961985E-02
              -6.7689590826635771E-03
              -5.1293457336816454E-03
              -6.0924741574231184E-03
               2.9679172445684471E-03
               7.5437214315123846E-03
              -1.2172294421628043E-02
              -7.9726383575705693E-03
               2.1938576782432842E-02
               4.2107083514807903E-03
              -1.5867249709247088E-02
              -5.9020167067446875E-03
               4.5342260106305396E-03
              -3.2997728756370037E-03
               4.0339136736217305E-03
              -1.4473807199200380E-04
               3.2846618072863065E-04
               7.7422020854832577E-03
              -1.1468154949624505E-02
               3.3840152956309175E-03
              -4.2577268395062231E-03
               1.2549072403398131E-02
               1.7658880278313696E-03
               7.0390061716687257E-03
              -5.0090653061367297E-04
              -8.5614199154708667E-04
              -6.6051667591828841E-03
               7.4198168591454606E-03
               8.9687285846334289E-03
               3.0623381273640290E-03
              -3.5992444011667393E-03
               7.3853258587433805E-04
              -5.4626220493521876E-03
               5.9289000133396063E-03
               6.7063376639616313E-04
               1.0066763972385238E-02
              -7.5324793362021086E-03
              -2.5262539755226917E-03
              -3.4513949630388986E-03
              -1.8601043968731513E-03
              -2.6127406584283887E-03
              -1.7456002894707568E-03
              -1.6826462851532555E-03
               3.5465230819619175E-03
               8.0447127586270786E-03
               4.8888481958003511E-03
              -1.3010421466921140E-02
               1.4480621917237881E-03
               1.7806226527889765E-03
               1.1667454625332377E-03
               1.4649683087222562E-03
               7.3481195186139488E-03
               6.4074296576153598E-04
               1.7416224220781031E-03
              -9.6155703699927816E-03
              -6.7379140375773954E-03
               4.8950030831041037E-03
              -9.1887113874929323E-03
               1.7526817998964697E-03
               8.2533495532100248E-04
              -2.0750980504134335E-03
               4.1045826286043073E-04
              -1.2949577497814039E-03
               8.1504722218598558E-03
              -2.8222896370621591E-03
              -2.6829380413337057E-03
               1.3211039431364896E-03
              -9.8654682746496833E-04
              -6.8017454185669802E-03
              -4.5197946921182296E-03
               7.8235263825262077E-03
               5.2456471371174563E-03
               3.7714728675388982E-04
              -1.1701120970856809E-02
              -1.2842180367354418E-02
               1.5225824089640379E-02
               3.8304501816924124E-03
               5.4390421525716990E-03
              -3.9401174056488113E-03
              -1.1211426588980538E-02
               5.7420202938849542E-03
              -1.4240572501105061E-03
              -1.3201107333394016E-02
              -3.6104187934641796E-03
              -1.0408781595705434E-02
               1.8314747476601625E-03
              -2.2412253009924141E-03
               1.1663129735417190E-02
               5.0520641941064906E-03
               2.6565742662001653E-04
              -8.1924597454249050E-03
              -2.4563530529695373E-03
               1.1117820684626886E-03
               2.1521955894936180E-03
               2.0240765908474080E-03
               5.0212417880700650E-03
              -5.5586191699381095E-03
               9.1772425239680377E-03
               7.5515699483109421E-03
               2.8412381544240300E-04
              -2.0731264656393879E-03
               1.3043574017932450E-04
              -1.0667354066311980E-03
              -9.9324031993839376E-04
               5.5261022245362539E-03
               1.3874438302946473E-02
              -1.1790175301746987E-02
              -1.1931847147853088E-02
              -4.8821235133025033E-03
               1.1834882631466521E-02
              -2.3636338863273188E-03
               2.1174409096611242E-03
              -9.0043741369715013E-04
              -8.4320310403994628E-03
               1.1576636499930449E-02
              -2.2435409142330894E-03
              -3.7368057601048672E-03
               1.3322276769937389E-02
               6.4010648312712616E-03
              -1.2861411864104363E-03
               7.4991951512005522E-03
              -6.3206391739629086E-03
              -1.0247118495213344E-02
               3.9864543136820894E-03
              -1.6790252139308097E-03
               1.2704438386090832E-03
              -2.5889092379984434E-03
              -2.8269624729392877E-03
         &END THERMOSTAT_ENERGY
         &RNG_INIT
Wiener process for Thermostat # 1        1 F T T  -1.3877964172148927E+00        3819968671.0        1923139303.0        2505174482.0        1129753110.0        1102497896.0        2318485114.0             12345.0             12345.0             12345.0             12345.0             12345.0             12345.0             12345.0             12345.0             12345.0             12345.0             12345.0             12345.0
Wiener process for Thermostat # 2        1 F T T   5.9690975612399577E-01        1863048650.0        1167059563.0        4156553466.0        2659491592.0        2500563110.0        2967422577.0        3692455944.0        1366884236.0        2968912127.0         335948734.0        4161675175.0         475798818.0        3692455944.0        1366884236.0        2968912127.0         335948734.0        4161675175.0         475798818.0
Wiener process for Thermostat # 3        1 F T T  -1.9577134425325560E-01        2029679022.0        1992813296.0        1475024831.0        3744841000.0        4231717232.0        1872789393.0        1015873554.0        1310354410.0        2249465273.0         994084013.0        2912484720.0        3876682925.0        1015873554.0        1310354410.0        2249465273.0         994084013.0        2912484720.0        3876682925.0
Wiener process for Thermostat # 4        1 F T T  -5.5423907268054418E-01         972191078.0        3239779000.0        2283144792.0        4029872124.0        2868550739.0         388907277.0        2338701263.0        1119171942.0        2570676563.0         317077452.0        3194180850.0         618832124.0        2338701263.0        1119171942.0        2570676563.0         317077452.0        3194180850.0         618832124.0
Wiener process for Thermostat # 5        1 F T T  -3.6874052824979625E-01         246061856.0        2033992607.0        4208640487.0        3425480013.0        1713937449.0        3033523858.0        1597262096.0        3906379055.0        3312112953.0        1016013135.0        4099474108.0         275305423.0        1597262096.0        3906379055.0        3312112953.0        1016013135.0        4099474108.0         275305423.0
Wiener process for Thermostat # 6        1 F T T   5.7875332706651861E-01        4268450248.0        1240555256.0        2123119467.0         299173953.0        2368881629.0        2698044585.0          97147054.0        3131372450.0         829345164.0        3691032523.0        3006063034.0        4259826321.0          97147054.0        3131372450.0         829345164.0        3691032523.0        3006063034.0        4259826321.0
Wiener process for Thermostat # 7        1 F T T  -1.8983145396195047E+00        4260312323.0         705196258.0         937296972.0        1373994383.0        3179698350.0        3757299263.0         796079799.0        2105258207.0         955365076.0        2923159030.0        4116632677.0        3067683584.0         796079799.0        2105258207.0         955365076.0        2923159030.0        4116632677.0        3067683584.0
Wiener process for Thermostat # 8        1 F T T  -3.3116685260855833E-01        2351531572.0        3477839446.0        1021048571.0        1975906828.0        1893564842.0         777663015.0        3281794178.0        2616230133.0        1457051261.0        2762791137.0        2480527362.0        2282316169.0        3281794178.0        2616230133.0        1457051261.0        2762791137.0        2480527362.0        2282316169.0
Wiener process for Thermostat # 9        1 F T T   1.4386427466100791E+00        3265425123.0        2999969280.0        3048908474.0        1047403656.0         134736569.0        4209884843.0        3777646647.0        1837464056.0        4204654757.0         664239048.0        4190510072.0        2959195122.0        3777646647.0        1837464056.0        4204654757.0         664239048.0        4190510072.0        2959195122.0
Wiener process for Thermostat # 10       1 F T T  -2.3947144259907721E-01        2825100143.0        2025717467.0        3827127036.0        1422979577.0        1026966836.0        1481957392.0        4215590817.0        3862461878.0        1087200967.0        1544910132.0         936383720.0        1611370123.0        4215590817.0        3862461878.0        1087200967.0        1544910132.0         936383720.0        1611370123.0
Wiener process for Thermostat # 11       1 F T T   2.8146058156813852E-01        3161233422.0        2404453347.0        1673723662.0         906337025.0          73303549.0        1016746719.0        1683636369.0         362165168.0         814316280.0         869382050.0         980203903.0        2062101717.0        1683636369.0         362165168.0         814316280.0         869382050.0         980203903.0        2062101717.0
Wiener process for Thermostat # 12       1 F T T  -6.6211933450441895E-01         208754144.0        1983222026.0        1378772639.0         460703296.0         651350573.0        3898252829.0         272317999.0         166758548.0         310112982.0         201045826.0        1680231254.0         118290799.0         272317999.0         166758548.0         310112982.0         201045826.0        1680231254.0         118290799.0
Wiener process for Thermostat # 13       1 F T T   2.2418582236869027E-02         545702192.0         878923556.0         464381839.0        1267067492.0        3004786620.0        2258194530.0        2245755202.0        1652682525.0        2865544364.0         721509566.0         209733568.0         592362218.0        2245755202.0        1652682525.0        2865544364.0         721509566.0         209733568.0         592362218.0