 # Version information for this restart file 
 # current date 2023-12-06 14:42:14.711
 # current working dir /scratch/work/courses/CHEM-GA-2671-2023fa/students/tje3676/comp-lab-class/Week12/Runs/Water
 # Program compiled at                              Sat Dec 12 18:27:15 EST 2020
 # Program compiled on                                         cs001.nyu.cluster
 # Program compiled for                                                nyu-intel
 # Source code revision number                                       git:8c64c6e
 &GLOBAL
   PRINT_LEVEL  LOW
   PROJECT_NAME water_aimd_1ps_every0.5fs
   RUN_TYPE  MD
   WALLTIME 21600
 &END GLOBAL
 &MOTION
   &GEO_OPT
     OPTIMIZER  BFGS
     MAX_ITER  100
     MAX_DR     3.0000000000000001E-03
     &BFGS
     &END BFGS
   &END GEO_OPT
   &MD
     ENSEMBLE  NVT
     STEPS  2000
     TIMESTEP     4.9999999999999994E-01
     STEP_START_VAL  2000
     TIME_START_VAL     9.9999999999998226E+02
     ECONS_START_VAL    -1.1023558357480224E+03
     TEMPERATURE     3.0000000000000000E+02
     &THERMOSTAT
       TYPE  GLE
       REGION  MASSIVE
       &GLE
         NDIM  5
         A_SCALE     1.0000000000000000E+00
         A_LIST     1.8595758612559999E+02    2.7263853498399998E-01    1.1526100454610001E+01   -3.6414578262600003E+01 \
             2.3173375816020001E+02
         A_LIST    -2.7809524712060002E-01    8.5951591808710006E-05    7.2189048017650004E-01   -1.9844539343859999E-01 \
             4.2409257583420001E-01
         A_LIST    -1.4825808131210000E+01   -7.2189048017650004E-01    1.3590902121280000E+00    5.1498896280349999E+00 \
            -9.9949268450990001E+00
         A_LIST    -1.0372189126880000E+01    1.9844539343859999E-01   -5.1498896280349999E+00    2.6661910891169999E+01 \
             1.1507715495310000E+01
         A_LIST     2.1801346360420001E+02   -4.2409257583420001E-01    9.9949268450990001E+00   -1.1507715495310000E+01 \
             3.0958394565589998E+02
         &THERMOSTAT_ENERGY
              -1.5346069645465067E-03
              -1.9896129892422658E-03
              -7.4213829329550490E-04
               8.0161641928257164E-03
              -1.2282782467107664E-02
               1.8810372328690386E-03
              -8.0313466488046606E-04
              -6.2015212760436001E-03
               1.8284886879201295E-02
               3.0760450863911758E-03
               1.2706911549202239E-02
               1.0813716092951877E-03
              -7.4452142631144559E-03
              -6.3108928506671281E-03
              -3.0987737146411187E-04
              -8.0692798755589677E-03
               1.8142948658299216E-02
              -2.2922425894951891E-03
               6.5391898289157381E-03
              -5.5123043886958142E-03
              -3.0899234015724919E-03
               4.5879170763002989E-03
              -9.0056182171822201E-03
              -4.6483637724455008E-03
               3.0709074801926108E-03
               2.4625239159295352E-03
               3.4669585928740272E-03
               1.7228689206010138E-03
               1.1372204550499485E-02
               2.3345530860946445E-03
               2.3674649195448388E-03
              -3.4796511933114218E-03
               3.1776895007615269E-03
               2.7582047418357072E-03
              -1.3582954365799595E-02
               1.4872299011495340E-02
               2.9924027204196440E-03
              -3.6202534006560989E-03
               1.5018368896039212E-03
               7.0561097390161621E-03
              -5.5059003464279586E-03
              -8.0059900225238900E-03
               8.8646880215137100E-03
               4.4900543954511764E-03
              -1.8417701237608138E-03
               2.8264251049683040E-03
              -9.8541640869793988E-04
               7.3466148187241150E-03
               5.7507463954886654E-03
               2.0365439960817093E-03
              -1.8835572288248498E-03
               2.8704057808476469E-03
              -7.2923056555185143E-03
              -6.1647960031869131E-04
              -6.0476869722857381E-03
               4.3584140748229496E-03
              -3.5335694914159356E-03
              -4.0762871238210667E-03
              -1.0122876220970767E-03
               1.9181516119728591E-02
               2.5301839369229174E-03
              -8.8357112568319511E-03
               1.6866488991557144E-02
              -5.0325530407860268E-03
               5.0647451633485073E-03
               1.3461061745635959E-03
              -8.6678006660268845E-03
               5.2656982074635889E-03
               2.1585152365187793E-02
               1.6617327511300474E-03
              -2.2303457647180427E-03
              -1.4129648070447828E-02
              -1.6613886475753685E-03
               2.3791206170111251E-03
              -3.1765709783901613E-04
              -1.0492674700536584E-02
               2.0307562894117193E-03
               3.9132541189259911E-03
               5.6211456759663065E-03
              -9.4651088070040260E-03
               1.9853343026499402E-02
              -3.8416748925689313E-03
               2.8124282679889197E-03
               1.5204987433543780E-03
              -2.0995842568669546E-03
               9.8321953772408672E-03
               3.2743914224107849E-03
              -7.8298589066604085E-03
               3.1248787238575839E-03
               1.5218606207005646E-03
               3.5486972129681426E-03
              -9.8703616334389135E-03
               8.8655465425521740E-04
              -7.7119472643024370E-03
              -7.5304182874901910E-03
               3.9415453204201204E-03
               1.0991974840881474E-02
               6.2365871112523620E-04
               5.0518954629968308E-03
              -4.8015228144596871E-04
              -1.4685830144700322E-03
              -9.6374560237113376E-03
               4.6722584755856094E-03
              -3.6314366359321633E-03
              -3.4849494165245401E-04
               1.4449648058626923E-02
               8.9073319455479144E-04
              -3.4362518762541018E-03
               2.4172769661422490E-03
              -6.3839799749125280E-03
               3.5187051596517684E-03
               6.5801777815065474E-03
              -3.6641635169327490E-03
              -6.6603665570306491E-03
               8.1639517924912766E-03
               6.1093081871723149E-03
              -1.5704409962292398E-02
               5.5793356524121516E-03
               4.3091145303445324E-03
               8.1867169930671096E-03
               9.1257299337631353E-03
              -4.2600227094234848E-03
              -1.7067906344530059E-03
               5.8639469199651215E-03
              -9.3754013948767912E-03
              -2.3209337124355462E-03
               4.0036673834412291E-03
               6.7768109511253327E-04
              -3.8042822611817208E-03
               5.3032796438060850E-03
              -3.6811584154343401E-03
               5.3828270190643132E-03
              -1.2226955986278879E-02
               6.1343109121792354E-03
              -1.8432845006041048E-04
              -9.7755124251684261E-05
              -3.7854279292746404E-03
              -5.7435066145572486E-03
               2.8959444533612540E-03
              -2.6591071129175858E-03
               2.1163940717522571E-03
              -3.6425270934155544E-03
               1.6150608269041394E-02
              -4.7477210889270375E-03
              -7.3458082751283321E-03
              -4.9606511239360404E-04
               6.0273636739191149E-03
               1.0375300945015136E-02
               3.1120750134266775E-03
              -4.4437400607904437E-03
              -1.6865731096934660E-02
               7.7083360495664634E-03
              -5.4904801922534712E-04
              -6.5709591541682905E-03
               1.0168125323322987E-02
              -1.3688045771870880E-03
              -1.5143159034730490E-03
               4.5186750867914011E-03
              -8.3896058897887948E-04
               2.0696031029680401E-03
              -1.0146630778926968E-02
              -8.6263058580226572E-03
              -7.8332600135065482E-04
               1.3679954363042762E-04
               7.6132989896123843E-03
               1.1606529064454833E-02
               1.9549191779766402E-03
              -1.9953267314966890E-02
              -6.5908201531476715E-03
               1.3408203138170146E-02
              -3.2924029967625916E-03
              -3.2355525092206657E-03
               1.0930915121066761E-03
              -5.2217940144357322E-03
              -4.1576682283024488E-03
               2.4259621846533714E-03
              -7.8338873161346648E-03
               2.0724265332894396E-03
               3.7159784009850594E-03
               8.3653222890754091E-03
              -2.8186383958357787E-03
               5.0484567750242425E-04
               7.0201020950954041E-03
              -1.9138289813448076E-02
               1.1334965936815201E-02
               1.9881490683728940E-03
              -4.5843007608734809E-03
               1.4883678216208945E-04
              -1.8926009130104953E-03
              -4.9779661634474857E-04
               4.0828173945934862E-03
               2.7128955287081149E-04
              -1.2048010016699334E-02
               7.9961954351375070E-03
               9.2745711700827262E-03
              -8.1473518705574895E-03
              -7.1397724217622379E-03
               1.7079461841522261E-03
              -4.5462599861580332E-03
              -4.7925582554360288E-03
              -2.0047142909609401E-03
              -2.1252025901003519E-03
               1.6743915878805873E-02
              -4.3663077737760205E-03
              -6.1476265570140527E-03
              -6.0498399586366054E-04
              -3.6002156197654971E-03
              -1.1463883627959709E-03
              -1.6772203493493299E-03
              -4.4450309689797772E-04
               1.3695682497095971E-02
              -7.7413413713354655E-03
               1.0440766452563928E-02
              -5.9605741189056169E-03
               5.9632697388418716E-03
              -2.5810693832365407E-03
              -1.4225507049771944E-02
               9.7848811919163999E-03
               2.9890103265135170E-03
              -1.7223345560910503E-02
              -4.1525692908245173E-03
               7.0918646963519304E-04
              -1.2744062597156000E-04
               1.7705337480923650E-02
              -2.6231959594398323E-03
               1.5391196015706592E-03
               2.6631536182738793E-03
               8.2296821548086241E-04
               5.3470304979626763E-03
              -3.0242707525936566E-03
              -1.2416555214577541E-02
              -1.5920222651270139E-03
               1.4286890279488261E-02
              -5.7350595942639989E-03
               1.6589886828719458E-03
               4.6176185989808454E-03
               4.3980782235988138E-04
              -2.8355056687393299E-03
               1.2738015352498536E-02
               7.2489177909410493E-03
              -5.3961246613863324E-03
              -8.3738113093713689E-03
              -1.1713230804105028E-04
              -2.4519904513017662E-03
               3.7606599137210927E-03
               3.2158205715228753E-03
               6.0433166327380338E-03
              -3.8243428627984309E-03
               7.7391184095017100E-04
               2.5224868660127051E-03
               6.7009155749452078E-03
              -1.2128888837192119E-02
              -7.0254792929241965E-03
              -6.5150229437458997E-03
               5.6531721325204900E-03
              -3.9913925564067238E-04
               7.7446834071323968E-03
              -3.7816927670894407E-03
               1.6002193386533314E-02
              -2.1793188519494085E-02
               2.1287118770916033E-02
               2.0457674988967546E-03
               2.0743384984236988E-03
              -1.5118501783466707E-03
               4.2775470231267007E-03
              -6.6406677649139354E-03
               2.1928651686051187E-04
              -5.7222633067859048E-03
               5.9824430649210638E-04
               7.6526057352899850E-03
              -1.9285454505607591E-03
              -4.7493172378745546E-03
              -1.0641380842740934E-03
               1.1495835758800008E-02
               4.1287991108875360E-03
               2.1975531670618284E-03
              -2.8051437860073827E-02
               2.4086085085454859E-02
              -5.8983864742471279E-03
               7.4308580036421710E-03
              -7.6547492700680137E-03
               1.7769232079614459E-03
               7.8527935922778850E-03
              -3.5126171967461393E-03
              -3.1895026202103352E-03
               4.9561846946423746E-03
              -1.9290974078124406E-03
              -1.0637175874593082E-02
              -2.4105195338291040E-03
              -9.4690977686519100E-04
              -2.9528140466136173E-03
               1.4767232773142007E-02
              -2.2286963471743119E-03
              -7.7294270945048992E-03
               2.1273646070965528E-03
               1.1355778201902976E-02
              -1.3129640919570432E-02
              -1.5809986827428942E-03
              -4.0693554069239461E-03
               3.4370027212946019E-04
              -1.1055357484414509E-02
               3.7231724508225805E-03
               8.0243476240564569E-03
               1.0501929629388937E-03
               8.4888608295537165E-03
              -1.1369188534965305E-02
              -2.4051906672288843E-03
              -1.3756668568093756E-03
              -2.3593470460554875E-03
               1.6471088454069967E-02
              -7.1131517989435813E-03
              -6.4654445135147584E-03
              -4.3106012331669864E-03
               1.3212472307176086E-02
               8.4598600599284843E-04
               1.2152589959094330E-02
               2.0267077782710262E-03
               3.4859212737542184E-03
              -7.6525902727041985E-03
               1.2667915799621861E-03
               1.2106787162892341E-02
              -1.5022244935124369E-02
              -1.4919721169687700E-02
               1.6791433033168889E-02
              -7.0313447830694315E-03
               1.0277030274913916E-02
               8.8412136793923624E-04
               4.2124926020004217E-03
              -3.4391243915110302E-03
              -1.0502825623513662E-03
              -1.9772198176398578E-03
              -1.6006121642044915E-02
               7.0160721822270650E-03
              -2.9438928497706900E-03
               5.6482706187036581E-03
               5.0951785289147650E-03
               1.3436225858628097E-02
               1.2938403150278706E-03
              -1.3554736203392254E-02
               1.1714340820286162E-02
               2.5509159337880945E-03
              -8.0203650808745326E-03
               2.6916201478445019E-03
              -7.2047649260570112E-03
              -6.9736594997304524E-04
              -5.1657067935937636E-03
               4.8335627529228061E-05
               1.0944461108684795E-03
               9.7325412097019857E-03
               2.7912564324849985E-03
               1.4906345049477546E-03
               4.3754920781290622E-03
              -8.8976232041234529E-03
              -2.7082644835463767E-03
              -1.5321055321601669E-02
               1.4617848685958982E-02
               3.7125762265811800E-03
              -8.3215080435046704E-03
              -1.3308733952008390E-02
               1.5450024586345189E-02
               2.3045416313608640E-03
              -4.1052631634199517E-03
              -1.0837799982147669E-02
              -5.0863442187372779E-03
              -3.5899510257428194E-03
               1.7112368915877939E-02
               1.1227585967368154E-02
              -5.4744523752792455E-03
              -1.1506135016875241E-02
              -3.9501239825167622E-03
               2.4203038886001535E-03
              -2.5203991255607319E-03
               4.0645685149919078E-03
               8.7859923271167758E-03
              -4.5715595381844295E-03
              -8.5467559113359189E-04
               5.6078599748641995E-03
              -8.7443578255928002E-03
              -2.8566439302168977E-03
               6.1642483807829223E-03
               2.0005305374449895E-03
              -2.2733291683316426E-03
               1.9664355124583317E-02
              -5.8988179083677289E-03
              -2.1550899814131472E-02
               8.4202078898785483E-03
               2.0634008253756211E-03
              -1.0012357880686675E-03
              -5.4324506967411207E-03
              -2.3358819407301513E-04
              -9.2864746558474712E-03
               1.8913705810102533E-02
              -2.1556704144338888E-03
              -7.5781638211376246E-03
              -3.2883164568175190E-03
               1.3305729309953131E-03
              -7.1181324197662843E-03
               8.4884156419284956E-03
               5.8952028325721367E-03
              -2.8991513512707900E-02
               1.1802130747226460E-02
               6.8766117229501688E-03
              -7.7666435319555119E-03
               6.5533753541528669E-03
               2.0858912072410609E-02
              -1.0543189900815952E-04
               7.0489627566422026E-03
               6.4890867252529686E-03
              -7.9980836557414078E-04
               2.9845896002710331E-03
               3.0806489602910360E-04
               1.9901718588945711E-03
              -1.2333901251759144E-02
               6.7111323694849807E-03
              -6.7450482748174136E-03
              -1.9947971473916750E-04
               2.9867916163574823E-03
              -2.3663375913106537E-03
               3.4313205591232361E-05
               4.3399801992453886E-03
               7.4048443025205417E-04
              -3.0248859457306311E-03
               2.3301503701098581E-03
               7.9060498819680735E-04
               2.1003263362579907E-03
               1.7223059419250880E-03
              -1.0244559780485409E-02
               6.2136739713575754E-03
              -6.9685804021265155E-03
               4.1641800653847141E-03
               9.4448823802879833E-03
              -9.7787206704839039E-03
              -4.5452207404970925E-03
              -7.0757037199207541E-03
               6.3074235192000713E-03
              -1.1397175443982024E-02
              -5.3094869874370535E-03
               9.5259455086564582E-03
              -7.5221447757411724E-03
               9.1498431060689622E-03
              -9.1557109823545545E-03
              -1.4788221562268354E-02
              -2.1255725119046559E-03
               5.1259113799711729E-03
              -9.8927812618559794E-03
              -7.5157530295746752E-03
               4.3105533846214588E-03
               6.7174884339929603E-03
               1.2494552968721925E-02
              -6.8510194796031461E-03
              -5.0130640212464042E-03
              -5.9908511639735059E-03
               3.0402661573972777E-03
               7.5815005451609335E-03
              -1.2216286283567098E-02
              -8.0144708759411661E-03
               2.2262403196587795E-02
               4.1163895541595184E-03
              -1.5355202597556785E-02
              -5.9243100622153105E-03
               4.5233708225319684E-03
              -3.3471442385257376E-03
               4.5488790718260117E-03
              -1.9758099553197374E-04
               5.0239762432300900E-04
               7.9157111069401917E-03
              -1.1528163192876518E-02
               2.9791712124362405E-03
              -3.8354471606998454E-03
               1.2490872861266300E-02
               1.5742108681380854E-03
               7.0545930686104347E-03
              -2.2081461757509084E-04
              -8.5091537476084328E-04
              -6.5517752338564994E-03
               7.4777750525552890E-03
               9.0690368880086587E-03
               3.2013821748535579E-03
              -4.6809817083939614E-03
               7.3770094130905196E-04
              -5.3595719989261289E-03
               5.6239706337184760E-03
               8.8536918130132703E-04
               9.9133854073231008E-03
              -7.6953754325296848E-03
              -2.1483995560352027E-03
              -3.2176492496570892E-03
              -1.9956269742358377E-03
              -2.8800665099732322E-03
              -1.5175932966458208E-03
              -1.6228546609048369E-03
               3.6376906602654129E-03
               7.7382442131254704E-03
               5.1576689068785113E-03
              -1.2969751726906233E-02
               1.1790951423247106E-03
               1.8079281420540507E-03
               1.2106407487442361E-03
               1.6089717815718899E-03
               7.4416399999351485E-03
               6.8765467970217703E-04
               2.1844633352999217E-03
              -1.0270211222144776E-02
              -6.8160928343217915E-03
               4.8402494976672915E-03
              -9.1316146441517386E-03
               2.0768771633869589E-03
               8.0211994013142161E-04
              -2.0434979578911857E-03
               8.4550215493707655E-04
              -1.2653103576648183E-03
               7.6588285974350055E-03
              -3.0566213437274200E-03
              -2.7733808403762996E-03
               1.3603832720095006E-03
              -9.3926226501875939E-04
              -6.1066996190063828E-03
              -4.6586336560414596E-03
               7.9528074099107400E-03
               5.1251810236897736E-03
               4.1131941520972527E-04
              -1.2392016664191622E-02
              -1.3184224364641691E-02
               1.5173181642843118E-02
               3.9071963378463446E-03
               5.9462902292008023E-03
              -3.9706491167722105E-03
              -1.0852776621816787E-02
               6.0426262212591470E-03
              -1.1868653098376794E-03
              -1.3093804663692832E-02
              -3.2858937412489552E-03
              -1.0759160157098165E-02
               1.8980819236061820E-03
              -1.6527729643430235E-03
               1.1763486327783960E-02
               5.0613516183198029E-03
               1.6534867227123906E-04
              -8.1954717726370561E-03
              -1.0811141888533993E-03
               8.2987321943250229E-04
               2.7914282255921434E-03
               1.5737101539826878E-03
               5.4904374233004302E-03
              -5.3243854638729167E-03
               9.0638243755341921E-03
               7.5483663540663439E-03
               9.7158896133148209E-04
              -2.3029420840802320E-03
               2.5366741609221495E-04
              -1.0545197261992763E-03
              -1.1062468577586321E-03
               4.8860764587590425E-03
               1.3835198274518269E-02
              -1.2134922597338338E-02
              -1.1874652369673843E-02
              -4.1481680584603119E-03
               1.1182719871404860E-02
              -2.1427760989180286E-03
               2.2389422711399844E-03
              -2.9807917644605647E-04
              -8.5171914702399584E-03
               1.1661714565788329E-02
              -2.3669212160698089E-03
              -4.0836451923301044E-03
               1.2620377512361117E-02
               6.3773957164310674E-03
              -1.2297232472725725E-03
               7.8522883483306896E-03
              -6.2028765644283326E-03
              -1.0705505133921159E-02
               3.8696026426582493E-03
              -1.6150435105938162E-03
               1.9552837739173759E-03
              -2.9659200672068047E-03
              -2.8002750548750395E-03
         &END THERMOSTAT_ENERGY
         &RNG_INIT
Wiener process for Thermostat # 1        1 F T T  -4.3866331554119464E-01        3463026290.0         996283881.0        3077134961.0        1575188103.0         352198642.0        1255594993.0             12345.0             12345.0             12345.0             12345.0             12345.0             12345.0             12345.0             12345.0             12345.0             12345.0             12345.0             12345.0
Wiener process for Thermostat # 2        1 F T T   6.1664168869435698E-01         581397078.0        3867423482.0         327967633.0        1486938113.0          26429212.0        4093174459.0        3692455944.0        1366884236.0        2968912127.0         335948734.0        4161675175.0         475798818.0        3692455944.0        1366884236.0        2968912127.0         335948734.0        4161675175.0         475798818.0
Wiener process for Thermostat # 3        1 F T T   2.0518696979926636E+00        1062843694.0        3278483557.0        2630284801.0         342499437.0         508306288.0         570022504.0        1015873554.0        1310354410.0        2249465273.0         994084013.0        2912484720.0        3876682925.0        1015873554.0        1310354410.0        2249465273.0         994084013.0        2912484720.0        3876682925.0
Wiener process for Thermostat # 4        1 F T T   8.6483655468840070E-01         858988242.0         878260951.0        1341305949.0        1687735708.0        1261279903.0        1615458589.0        2338701263.0        1119171942.0        2570676563.0         317077452.0        3194180850.0         618832124.0        2338701263.0        1119171942.0        2570676563.0         317077452.0        3194180850.0         618832124.0
Wiener process for Thermostat # 5        1 F T T  -7.2623034709222295E-02        3503246388.0        3640749438.0          80160185.0        4050541932.0        1809135917.0         826251710.0        1597262096.0        3906379055.0        3312112953.0        1016013135.0        4099474108.0         275305423.0        1597262096.0        3906379055.0        3312112953.0        1016013135.0        4099474108.0         275305423.0
Wiener process for Thermostat # 6        1 F T T   2.6094790259997280E+00        1648662560.0         298744963.0         276080774.0        3452610735.0        2129471280.0        4132861437.0          97147054.0        3131372450.0         829345164.0        3691032523.0        3006063034.0        4259826321.0          97147054.0        3131372450.0         829345164.0        3691032523.0        3006063034.0        4259826321.0
Wiener process for Thermostat # 7        1 F T T   1.3118545096244869E+00        4025695046.0        1027992126.0        3217973651.0        2155997853.0        1780084567.0        1907814450.0         796079799.0        2105258207.0         955365076.0        2923159030.0        4116632677.0        3067683584.0         796079799.0        2105258207.0         955365076.0        2923159030.0        4116632677.0        3067683584.0
Wiener process for Thermostat # 8        1 F T T   7.1524753302764935E-02        2631328646.0          66904958.0        3191287979.0        3452779318.0        2048731614.0        3759050068.0        3281794178.0        2616230133.0        1457051261.0        2762791137.0        2480527362.0        2282316169.0        3281794178.0        2616230133.0        1457051261.0        2762791137.0        2480527362.0        2282316169.0
Wiener process for Thermostat # 9        1 F T T  -1.0980465140389938E-01        1977246253.0        1903248984.0        3508262652.0        2466127224.0         300284070.0         767034957.0        3777646647.0        1837464056.0        4204654757.0         664239048.0        4190510072.0        2959195122.0        3777646647.0        1837464056.0        4204654757.0         664239048.0        4190510072.0        2959195122.0
Wiener process for Thermostat # 10       1 F T T   1.9081094228418396E+00         405211316.0        3215252316.0        3029076279.0        3899943421.0         886526099.0         586515832.0        4215590817.0        3862461878.0        1087200967.0        1544910132.0         936383720.0        1611370123.0        4215590817.0        3862461878.0        1087200967.0        1544910132.0         936383720.0        1611370123.0
Wiener process for Thermostat # 11       1 F T T  -5.3344054384789541E-01        3450000619.0        1059116059.0        3916567347.0         635813254.0        3901690603.0        3696418470.0        1683636369.0         362165168.0         814316280.0         869382050.0         980203903.0        2062101717.0        1683636369.0         362165168.0         814316280.0         869382050.0         980203903.0        2062101717.0
Wiener process for Thermostat # 12       1 F T T   8.9448207812820613E-01        1696219248.0        1783691089.0        1685873716.0        1285524479.0        2726140602.0        4269630803.0         272317999.0         166758548.0         310112982.0         201045826.0        1680231254.0         118290799.0         272317999.0         166758548.0         310112982.0         201045826.0        1680231254.0         118290799.0
Wiener process for Thermostat # 13       1 F T T  -1.0297203341400047E+00        4019568919.0        3484227797.0         947541978.0        4224885921.0        2127446270.0         502669027.0        2245755202.0        1652682525.0        2865544364.0         721509566.0         209733568.0         592362218.0        2245755202.0        1652682525.0        2865544364.0         721509566.0         209733568.0         592362218.0