 # Version information for this restart file 
 # current date 2023-12-06 11:54:43.401
 # current working dir /scratch/work/courses/CHEM-GA-2671-2023fa/students/tje3676/comp-lab-class/Week12/Runs/Water
 # Program compiled at                              Sat Dec 12 18:27:15 EST 2020
 # Program compiled on                                         cs001.nyu.cluster
 # Program compiled for                                                nyu-intel
 # Source code revision number                                       git:8c64c6e
 &GLOBAL
   PRINT_LEVEL  LOW
   PROJECT_NAME water_aimd_1ps_every0.5fs
   RUN_TYPE  MD
   WALLTIME 21600
 &END GLOBAL
 &MOTION
   &GEO_OPT
     OPTIMIZER  BFGS
     MAX_ITER  100
     MAX_DR     3.0000000000000001E-03
     &BFGS
     &END BFGS
   &END GEO_OPT
   &MD
     ENSEMBLE  NVT
     STEPS  2000
     TIMESTEP     4.9999999999999994E-01
     STEP_START_VAL  1000
     TIME_START_VAL     4.9999999999999636E+02
     ECONS_START_VAL    -1.1023558357480224E+03
     TEMPERATURE     3.0000000000000000E+02
     &THERMOSTAT
       TYPE  GLE
       REGION  MASSIVE
       &GLE
         NDIM  5
         A_SCALE     1.0000000000000000E+00
         A_LIST     1.8595758612559999E+02    2.7263853498399998E-01    1.1526100454610001E+01   -3.6414578262600003E+01 \
             2.3173375816020001E+02
         A_LIST    -2.7809524712060002E-01    8.5951591808710006E-05    7.2189048017650004E-01   -1.9844539343859999E-01 \
             4.2409257583420001E-01
         A_LIST    -1.4825808131210000E+01   -7.2189048017650004E-01    1.3590902121280000E+00    5.1498896280349999E+00 \
            -9.9949268450990001E+00
         A_LIST    -1.0372189126880000E+01    1.9844539343859999E-01   -5.1498896280349999E+00    2.6661910891169999E+01 \
             1.1507715495310000E+01
         A_LIST     2.1801346360420001E+02   -4.2409257583420001E-01    9.9949268450990001E+00   -1.1507715495310000E+01 \
             3.0958394565589998E+02
         &THERMOSTAT_ENERGY
              -4.0943464504639964E-03
              -7.6080839766800792E-05
              -8.2930492624353532E-04
               7.8444388972079872E-03
              -6.2005127713117376E-03
               6.7654448207190177E-03
               1.6312397960698099E-03
              -6.0272697779608590E-03
               7.4013192490018712E-03
               5.0637841258015064E-03
               9.4842037577721004E-03
              -3.5661225548642471E-03
              -5.7460656263229482E-03
              -5.2830711036515746E-03
               2.7628867873672163E-04
              -4.6123968221678845E-03
               1.1667418547647029E-02
              -3.5453041677660732E-03
               6.5621023881944403E-03
              -6.2683092707183051E-03
               5.1662070429382147E-04
               1.5443262614748550E-03
              -1.0412177105244543E-03
               9.9512922006248406E-04
              -4.2337562792019237E-03
               2.3984690256465663E-03
               1.9097322933073365E-03
               2.5573594850499459E-03
               4.1455782263074116E-03
               8.7839958771415943E-04
              -6.8172653355002433E-03
              -2.3911262524646927E-04
              -1.1176819207400028E-04
               4.8276393922184477E-03
              -1.2015300684704973E-02
               1.1215868322253424E-02
              -1.6662608174376273E-03
               2.7051302657469302E-04
              -5.0475314632506181E-04
              -5.2720990272874958E-03
              -4.0471328020479092E-03
               1.8763156337229844E-03
               2.7714956629048054E-03
               7.3180037143243080E-03
              -4.6737187507075468E-03
               3.7190355312989418E-03
              -2.2824498132323259E-03
               4.3085541474839227E-03
              -1.0554246665734691E-03
              -5.3632443896225743E-03
               2.6864459110027324E-03
              -5.0049367783674891E-03
              -2.4836811687992005E-03
               7.6605071319815563E-03
              -5.1145617749594127E-03
               2.3468564798681756E-03
              -2.7519139167505760E-03
              -4.3131652896197779E-04
              -1.0922904491233725E-03
               5.6299487368979455E-03
               8.4602436902020677E-04
              -1.9084704658153156E-03
               1.4312393921768531E-02
              -4.1261014187457482E-03
               8.2987365796437836E-04
               2.3505990180710564E-05
              -1.0140176659420625E-02
               1.8975879698656627E-03
               1.5433467991197993E-02
               2.4240469393168739E-04
              -1.5046032127876564E-03
              -9.1878540755639913E-03
              -1.3182725109380394E-03
              -1.3545051238529737E-03
              -3.7239671769738721E-03
              -1.0857401962594663E-02
               3.0630490712580563E-03
               1.0331288243794253E-03
               8.8120568133237941E-03
              -8.9575726569011971E-03
               9.5724143309980740E-03
              -7.7985232061058532E-04
               2.0179233077679068E-04
              -1.8278117037278201E-03
               8.7699316856015581E-04
               5.7612927445126749E-03
              -6.1825534735190219E-04
              -1.0586295408943299E-03
               3.3145896763038490E-03
              -1.1011214490541279E-03
               1.6374530290042058E-03
              -7.5279296939044262E-03
               1.1005124987299283E-03
              -3.5253732399342375E-03
              -8.9432427177859181E-03
               4.0930703019179757E-03
               8.1835306879408081E-03
              -1.9805495192403819E-03
               4.4057005023978016E-03
               2.5821485519186388E-04
              -2.3339357346688254E-03
              -7.2970834314513688E-03
              -1.0658385501923846E-03
              -3.8732184625002710E-03
               5.7795413341625978E-03
               5.4741198391747266E-03
               1.5524522428364139E-03
               7.4374855567873547E-04
               2.6121031648654743E-03
              -7.3184025534803031E-03
               2.8690789498540766E-03
              -9.2157209433343175E-04
               2.0824624492886382E-03
               6.0160071355773708E-03
               3.2233215699753377E-03
               5.3469659231475944E-03
              -1.7561263611267322E-02
               4.6149312044261627E-03
               1.6321677358071838E-03
               3.8682638851613668E-03
               4.4004299815961299E-03
               1.4035739385557047E-03
              -2.4135986290071518E-03
              -7.8364934662955251E-04
              -3.6101842679728685E-03
              -8.6687366753143550E-04
               1.6791956634656688E-03
              -1.9359158653702144E-04
              -9.4328650152844637E-04
              -4.7906707675994748E-03
               7.0054174238427672E-05
               6.8187210148534213E-03
              -5.1697782986357263E-03
               8.8621833549351915E-03
               1.9989515216486888E-04
              -3.2858940684550196E-04
              -2.0346580607665627E-03
              -5.8908821776579284E-03
               4.0987187422094028E-03
              -8.9294611874897751E-03
               6.1350625849920220E-03
              -1.8424073077770006E-03
               1.8585214061546829E-02
              -4.6054145531254989E-03
              -1.6999707581854121E-03
               4.0261229047526103E-04
               8.0409097719558661E-03
               1.7431848595887295E-03
               1.5440371532591205E-03
              -4.1043781257597330E-03
              -8.1997631109122209E-03
               1.6079117652922270E-03
               1.9809720246469929E-03
              -2.1665310324913440E-03
               2.5884459528062453E-03
               1.0133372072050463E-03
               5.4484554516930194E-03
               3.4306067323122664E-04
              -4.5603253196633310E-03
               2.6654912057694521E-03
              -6.5175736689512924E-03
              -2.9077130223735615E-03
              -2.1032353876770235E-03
               5.4021754150120700E-04
               3.3473058045911806E-03
               6.5375916073656020E-03
               4.0122561059855516E-03
              -6.0339476781473261E-03
              -1.0840501514799103E-02
               7.4763410303055949E-03
               4.6617510067298496E-04
              -5.4256344280443364E-03
              -8.7581117846139106E-04
               1.0812237556144267E-04
              -5.3860377070370372E-03
               2.4965568473717444E-03
               1.3320210422312546E-03
               5.9706829807234171E-03
              -2.0181295467479638E-03
               3.6586986451370225E-03
              -3.7219987077106815E-03
               1.2615234660702124E-03
               3.9277809896532193E-03
              -8.6805616241371949E-03
               7.5358490329033899E-03
              -3.6162668040825236E-03
               1.1306501853004941E-03
              -6.6365094192296064E-04
              -3.8279094741345112E-03
              -1.4714120892112975E-03
               1.6317458796858031E-03
              -2.2871513315880958E-03
              -4.9580946965567946E-03
               4.0988303983030359E-03
               6.1391655084121356E-03
              -2.3608294301379418E-03
              -5.5884863841751961E-03
               2.7625958251959186E-03
              -2.2300860935631425E-03
              -7.6148306914388601E-04
               1.3980465228051564E-03
              -5.9227248119483877E-03
               1.1251745882472873E-02
              -2.1476243185701489E-03
              -2.8662030549939464E-03
              -3.3170666281125876E-03
              -1.6910170574344254E-03
               2.3594617708109552E-03
               3.1658747433669027E-04
               1.1641970531344596E-03
               6.8041315733473572E-03
              -4.8128142481338370E-04
               3.8749219290904538E-03
              -1.1008026688784384E-02
               2.7480713776342313E-04
               3.9560811366764958E-03
              -4.2681420423967215E-03
               5.4894418413279442E-03
               1.4987499655289829E-04
              -6.8072303768829355E-03
              -2.6231374333923587E-03
               2.3235504600066805E-03
              -9.6041289362863475E-04
               5.8837598840815663E-03
              -2.2374233445932051E-04
              -1.1258298853543377E-03
               1.9202450942449700E-03
               2.7764317926543560E-03
              -3.8350995953568895E-03
               1.5742222999444657E-03
              -6.7732133082297977E-03
               2.5862386631899459E-03
               3.0215977330310235E-03
              -4.3554093179546689E-03
               3.6962699987265900E-03
               1.8885915775948667E-04
              -2.0190700129635512E-03
               1.5732694833178679E-03
               6.2962248948232749E-03
               1.3735562763014153E-03
               6.9148419675841536E-04
              -1.0164380002083220E-02
               4.6421459463874279E-03
               1.4917962049917463E-03
              -2.6852576659231503E-03
               1.9765006856288028E-03
               6.1946155390612805E-03
              -6.8013577941470980E-03
              -7.5492599994964982E-04
               7.2631351175906148E-05
              -1.3644390116578027E-04
              -7.0881073801244265E-05
              -5.8420977925419722E-03
              -3.7755173786885379E-03
               3.3757238429286173E-03
              -2.1578282130617671E-03
               1.0430653852887746E-02
              -3.3388039473467154E-03
               2.8868715431045718E-03
              -8.5539604959327838E-03
               8.5834037954901042E-03
               2.5554603468483147E-03
               3.0101972594093647E-03
               1.4712450500669993E-03
               8.2859513586502464E-03
              -4.5212157144883212E-03
              -2.1033295751382497E-03
              -2.9080758448792824E-03
              -6.7080959426483793E-03
               5.0670951119857104E-03
              -1.1282231642859826E-03
              -3.3435125488684553E-03
               1.4694373831821538E-03
               7.4309188701812464E-03
               2.9970002122082975E-03
               2.0946137924631415E-03
              -2.1640126611624295E-02
               1.3990911251499363E-02
              -3.9842458760202459E-03
               6.0147160748383523E-03
              -3.5767373607512995E-03
               2.6651318307128868E-03
               1.2454357101305125E-02
              -1.8108088756778043E-03
              -1.0014702758827586E-02
              -5.6858651497598608E-03
               3.0925195460924965E-03
              -5.6242522465356918E-03
              -1.9665626001124131E-03
              -3.6166340766912524E-03
               8.9224244956924480E-05
               3.8344544456888675E-03
               8.9847785952286152E-03
              -3.5049502863036884E-03
              -7.1588259699074453E-04
               5.0596640561338226E-03
              -5.3457156535485339E-03
              -1.6817701812513939E-03
              -2.4599425499791409E-03
              -9.2103842248712948E-04
              -2.1989291193538181E-03
               7.4951017936060529E-03
               8.8584480970754851E-04
              -1.5108434465355570E-03
               4.8702317664370007E-03
              -8.5599320606123946E-03
               2.9473725069489986E-03
              -2.1427520917936408E-03
              -3.5815141774875620E-03
               1.1126046214242473E-02
              -4.8802426551219323E-03
              -7.8858714123187703E-03
               2.2508498702630492E-03
               7.9069246989097054E-03
               1.7097333598722387E-03
               6.6647607437115312E-03
               9.6673912669262047E-04
               1.8612377124150926E-03
              -3.3083695006364258E-03
              -6.3663741789840352E-03
               9.1663511308680105E-03
              -6.5538550349631399E-03
              -8.0849409846744710E-03
               1.0647059052174107E-02
              -3.4184383787421698E-03
               2.4298813047545819E-03
               2.4354691827212331E-03
               6.2961050858060408E-03
              -3.8936812991656332E-03
              -4.6807592859949157E-03
              -6.2175061112861177E-03
              -7.5352216769901722E-03
               1.0729788651839321E-02
              -1.2756995815026923E-03
               2.5644190737477727E-03
               1.5708816415528723E-04
               1.6936355773325269E-02
               1.8023704736089001E-03
              -1.0084279214729569E-02
               4.1668456240502938E-03
               7.5890621225210703E-03
              -8.9014986748426096E-03
               8.6997493942079466E-04
               1.9080170067613976E-03
              -8.9433210432811056E-04
              -1.0889890476371221E-02
               4.3335664818827850E-03
              -1.0284501697587168E-03
               4.2565045084768808E-03
              -9.2948560045985599E-05
              -3.2802176080922404E-03
               1.9708387884592726E-03
              -7.2765584101784561E-03
               1.9439459729959632E-03
              -6.1618313344634435E-03
               1.0349163400074714E-02
               7.1857519733579977E-04
              -1.4056705775605007E-03
              -4.5874339819527918E-03
               7.2729952961453955E-03
              -1.1579963201038021E-03
              -3.6240769342072359E-04
              -1.0667797654265372E-02
              -2.8186826048704557E-03
              -5.9777368887952917E-04
               1.3294442902248431E-02
               3.8898513125196449E-03
              -6.7095380092176463E-04
              -3.8343250235999818E-03
              -1.6132410186404697E-04
               1.8712875234795146E-03
              -2.3013286205207191E-03
              -7.3303787551525831E-03
              -5.9684729841176292E-03
               7.2653701565601895E-03
              -1.0119438150488495E-02
               8.6263378172185476E-03
               3.3887393968219650E-03
              -1.0032319877478582E-03
               5.7997882943063277E-04
               1.2620467766932130E-03
              -3.2639639853739738E-04
               1.5399978145517355E-02
              -2.7793476699571554E-03
              -1.4737951777679323E-02
               1.0338772350966838E-02
              -5.1623566731565313E-03
              -4.9538536364710818E-03
              -2.7188053350468010E-03
              -8.9562479358198683E-04
              -6.9179334551074546E-03
               1.2993797692057401E-02
              -4.6544679746241566E-04
              -1.6699788342397972E-03
              -4.8773458522442187E-03
               1.4504275859121055E-03
              -1.8438396991079411E-03
              -8.1894596465384320E-04
               4.8643007139002794E-03
              -1.0086072952895316E-02
               3.0577641637786548E-03
               1.1321950180260779E-02
              -9.5053665370470834E-03
               9.0922847042329679E-03
               7.7366691438468206E-03
              -1.6965889576066656E-03
               2.4578041192141000E-03
               7.6224735856575661E-03
              -9.0986635282060656E-03
               3.1696803532769843E-03
               5.6158345341275053E-04
               8.1330893280147517E-04
              -2.2274610235788889E-03
               4.2477638846641613E-03
              -5.9768971383329459E-03
              -3.1501121719102066E-03
               5.0463422928071168E-03
              -2.0038788330720143E-03
              -3.4355010843017510E-03
               1.0221424714185908E-02
              -1.5492759682589354E-03
               2.4464616462935010E-03
               4.9033051725262504E-06
               3.4888798645218108E-03
              -3.0328242165866674E-04
              -1.9164703727971577E-03
              -8.3214089306876855E-03
               4.8834983975823767E-03
              -2.4648275156288510E-03
               1.0310161124757501E-03
               9.2811244497882292E-03
              -8.8370062483214447E-03
               7.0200285922776366E-05
              -9.8393437685667380E-04
               2.8268174855628735E-03
              -1.0427550195001418E-02
               1.4171205927095199E-03
               4.2546119428285012E-03
               7.7401742097310327E-04
               6.3312456013787316E-03
              -2.4485867847312669E-03
              -8.6927760007906706E-03
               3.4671176225571582E-03
               4.9947691912614221E-03
              -3.3337050495003328E-03
              -6.0029885439830954E-03
               1.4159063837559109E-03
               4.6666948284336679E-03
               3.5990522797351909E-03
              -1.1665611760367761E-03
              -7.0642294322491327E-04
              -2.1896003417938752E-03
               3.4851949889791786E-03
              -2.6570182840275664E-03
              -6.5135783238888401E-03
              -4.2906805212855241E-03
               1.5346290058311189E-02
              -1.6137409458592113E-03
              -1.1360440650147343E-02
              -4.9012108839733420E-03
               4.2331955503417092E-03
              -5.7139997879218666E-03
               3.1997180423109142E-03
              -8.9594134744570690E-04
               5.7942655840725306E-03
               7.6146768619289812E-03
              -2.7214259170114715E-03
              -1.1936737489193579E-03
              -3.1731645886533483E-03
               1.7724297491750404E-03
               2.4700194073683669E-03
               7.6316035848364907E-03
              -3.2080124648131217E-03
              -2.6533782383121249E-03
               5.3755037402553807E-03
               4.8150924202492677E-03
               5.7971225973869915E-03
               1.6994781099515500E-03
              -3.2525938376256058E-03
               4.6819085035402263E-03
              -6.7134150595426160E-03
               3.7619996625516726E-03
               2.3545707222081161E-03
               3.8819963249776394E-03
              -7.3611263106311319E-03
              -9.8553221808213060E-04
              -1.5818931091112921E-03
              -3.5399108506984291E-03
              -1.9315570548522792E-03
              -1.4308086087812808E-03
              -1.1675187739753270E-03
              -1.7330703733790687E-03
               9.8349638425070151E-04
               1.2904318170911727E-02
              -6.7466639944230716E-03
               2.5696485709918895E-03
               1.2773476922666807E-03
              -1.7894833306185295E-04
               2.2026413883544697E-03
               3.7615931776463002E-03
               3.4845080246133781E-03
              -1.6668907209325273E-04
              -5.7986309896116296E-03
              -6.5905641735311278E-04
               1.8146441051762408E-03
              -3.7813172970264874E-03
               1.1892666370186093E-03
               3.0063994287346527E-03
               2.8644789942841166E-03
              -1.7009544097233324E-04
               1.5898294792619470E-03
               1.0915387627160916E-02
              -1.7111948843009546E-02
              -3.7786244245742261E-04
              -6.9358207903993225E-04
               2.3567304896783283E-03
              -9.0791911259651588E-03
               4.9776945425882204E-03
               4.9924797244141009E-03
              -1.5168000969402538E-03
               6.6621697094037483E-03
              -1.3351867269841111E-02
              -4.5267043813492858E-03
               8.2901865527649082E-03
               1.3165870331043909E-03
               6.3778205600830795E-04
              -6.9130015852882521E-03
              -6.8809213004161025E-03
               4.8958335014803091E-03
              -2.5885552607572897E-03
              -5.9971898655114958E-03
               6.5114278136261237E-04
              -3.7952097856599467E-03
              -1.7996592634537396E-03
               3.4798350148140789E-03
               4.5594759896034542E-03
               9.1593012344310179E-04
              -1.6838545733253900E-03
              -9.1503291754632728E-03
              -5.0678495097397289E-04
              -3.8773301145849912E-03
               1.0684054460460466E-03
              -6.9309429132387182E-04
               4.2218038721120619E-03
               3.0490993783045960E-03
              -1.1835134987738275E-03
               7.5895657546764693E-03
               2.3087879050214168E-03
              -6.7492014152966771E-03
              -1.0912291012120090E-03
               3.4368377243974243E-03
              -4.2447680999979226E-03
               2.4122462791147982E-04
               4.7046160953174588E-03
               1.4602754033969719E-03
              -1.2936532564680059E-02
               4.1724187047764098E-03
               3.3917896026026159E-03
              -2.4816052236535917E-03
               6.8977458952948511E-04
              -1.2529080870590551E-03
              -1.0656163467395716E-03
              -1.9959989208737537E-03
               1.1422717538548366E-02
              -3.9284799103311771E-03
               8.9680217929777595E-03
               1.3104308552527395E-03
               9.6641968549751264E-05
              -4.0093852152897503E-03
              -4.2524113973101945E-03
              -6.0461203201321303E-03
              -9.0494503128246175E-04
               9.7221679706176716E-03
               3.9592060276671974E-03
              -3.4216184953591217E-03
               2.0844254715382724E-03
         &END THERMOSTAT_ENERGY
         &RNG_INIT
Wiener process for Thermostat # 1        1 F T T  -9.8236738167888460E-01         226733040.0        4248387519.0        1164353849.0        2758509449.0        3644127687.0        1764793484.0             12345.0             12345.0             12345.0             12345.0             12345.0             12345.0             12345.0             12345.0             12345.0             12345.0             12345.0             12345.0
Wiener process for Thermostat # 2        1 F T T  -1.4171306107827426E+00        1528154308.0        2775625301.0         197130159.0        1452211673.0        1835562137.0        1983376171.0        3692455944.0        1366884236.0        2968912127.0         335948734.0        4161675175.0         475798818.0        3692455944.0        1366884236.0        2968912127.0         335948734.0        4161675175.0         475798818.0
Wiener process for Thermostat # 3        1 F T T   8.6049543281786645E-01        2248570378.0        1724762616.0          52903713.0        3229622658.0        3199004837.0        4241126217.0        1015873554.0        1310354410.0        2249465273.0         994084013.0        2912484720.0        3876682925.0        1015873554.0        1310354410.0        2249465273.0         994084013.0        2912484720.0        3876682925.0
Wiener process for Thermostat # 4        1 F T T  -1.5460863137690717E+00         957380376.0         510326667.0        2247033635.0        2033071685.0        3054261466.0        3462352516.0        2338701263.0        1119171942.0        2570676563.0         317077452.0        3194180850.0         618832124.0        2338701263.0        1119171942.0        2570676563.0         317077452.0        3194180850.0         618832124.0
Wiener process for Thermostat # 5        1 F T T   1.5428690481661575E-01        4203301200.0         738999836.0        1485820986.0          20648636.0        2223680357.0        4294941489.0        1597262096.0        3906379055.0        3312112953.0        1016013135.0        4099474108.0         275305423.0        1597262096.0        3906379055.0        3312112953.0        1016013135.0        4099474108.0         275305423.0
Wiener process for Thermostat # 6        1 F T T   7.0411917217518150E-01        1265311014.0        3687607523.0        1792102642.0         142025920.0         459804801.0        1211121065.0          97147054.0        3131372450.0         829345164.0        3691032523.0        3006063034.0        4259826321.0          97147054.0        3131372450.0         829345164.0        3691032523.0        3006063034.0        4259826321.0
Wiener process for Thermostat # 7        1 F T T  -9.5744195640119531E-02        4040223344.0        4246262317.0         329086624.0          28777921.0        2946509694.0        1489700490.0         796079799.0        2105258207.0         955365076.0        2923159030.0        4116632677.0        3067683584.0         796079799.0        2105258207.0         955365076.0        2923159030.0        4116632677.0        3067683584.0
Wiener process for Thermostat # 8        1 F T T  -1.2413826789147817E-01         252045112.0        2848200345.0         154646410.0        1271924195.0        1873079261.0        3351978939.0        3281794178.0        2616230133.0        1457051261.0        2762791137.0        2480527362.0        2282316169.0        3281794178.0        2616230133.0        1457051261.0        2762791137.0        2480527362.0        2282316169.0
Wiener process for Thermostat # 9        1 F T T   1.0331244080464512E+00        3784506675.0        1914172684.0        3527875272.0        1610827989.0        3855196701.0        1117597481.0        3777646647.0        1837464056.0        4204654757.0         664239048.0        4190510072.0        2959195122.0        3777646647.0        1837464056.0        4204654757.0         664239048.0        4190510072.0        2959195122.0
Wiener process for Thermostat # 10       1 F T T   2.1466585360569199E-01        3057685686.0        2869029583.0         411221469.0        2821893460.0         322924656.0        1143227575.0        4215590817.0        3862461878.0        1087200967.0        1544910132.0         936383720.0        1611370123.0        4215590817.0        3862461878.0        1087200967.0        1544910132.0         936383720.0        1611370123.0
Wiener process for Thermostat # 11       1 F T T  -4.4132046785776799E-02        1554543736.0        2717576499.0        4135075403.0        2618383353.0         642871762.0         249586537.0        1683636369.0         362165168.0         814316280.0         869382050.0         980203903.0        2062101717.0        1683636369.0         362165168.0         814316280.0         869382050.0         980203903.0        2062101717.0
Wiener process for Thermostat # 12       1 F T T  -5.6161533877704317E-01        1770324141.0        3770017049.0         190859559.0         764828178.0        2918138424.0         736540625.0         272317999.0         166758548.0         310112982.0         201045826.0        1680231254.0         118290799.0         272317999.0         166758548.0         310112982.0         201045826.0        1680231254.0         118290799.0
Wiener process for Thermostat # 13       1 F T T   9.7554409384929153E-01        3627045108.0        1898589428.0        2752141753.0          85759421.0        2499273175.0        1137986601.0        2245755202.0        1652682525.0        2865544364.0         721509566.0         209733568.0         592362218.0        2245755202.0        1652682525.0        2865544364.0         721509566.0         209733568.0         592362218.0