 # Version information for this restart file 
 # current date 2023-12-06 14:41:36.460
 # current working dir /scratch/work/courses/CHEM-GA-2671-2023fa/students/tje3676/comp-lab-class/Week12/Runs/Water
 # Program compiled at                              Sat Dec 12 18:27:15 EST 2020
 # Program compiled on                                         cs001.nyu.cluster
 # Program compiled for                                                nyu-intel
 # Source code revision number                                       git:8c64c6e
 &GLOBAL
   PRINT_LEVEL  LOW
   PROJECT_NAME water_aimd_1ps_every0.5fs
   RUN_TYPE  MD
   WALLTIME 21600
 &END GLOBAL
 &MOTION
   &GEO_OPT
     OPTIMIZER  BFGS
     MAX_ITER  100
     MAX_DR     3.0000000000000001E-03
     &BFGS
     &END BFGS
   &END GEO_OPT
   &MD
     ENSEMBLE  NVT
     STEPS  2000
     TIMESTEP     4.9999999999999994E-01
     STEP_START_VAL  1997
     TIME_START_VAL     9.9849999999998249E+02
     ECONS_START_VAL    -1.1023558357480224E+03
     TEMPERATURE     3.0000000000000000E+02
     &THERMOSTAT
       TYPE  GLE
       REGION  MASSIVE
       &GLE
         NDIM  5
         A_SCALE     1.0000000000000000E+00
         A_LIST     1.8595758612559999E+02    2.7263853498399998E-01    1.1526100454610001E+01   -3.6414578262600003E+01 \
             2.3173375816020001E+02
         A_LIST    -2.7809524712060002E-01    8.5951591808710006E-05    7.2189048017650004E-01   -1.9844539343859999E-01 \
             4.2409257583420001E-01
         A_LIST    -1.4825808131210000E+01   -7.2189048017650004E-01    1.3590902121280000E+00    5.1498896280349999E+00 \
            -9.9949268450990001E+00
         A_LIST    -1.0372189126880000E+01    1.9844539343859999E-01   -5.1498896280349999E+00    2.6661910891169999E+01 \
             1.1507715495310000E+01
         A_LIST     2.1801346360420001E+02   -4.2409257583420001E-01    9.9949268450990001E+00   -1.1507715495310000E+01 \
             3.0958394565589998E+02
         &THERMOSTAT_ENERGY
              -1.7191013470880992E-03
              -2.2003421492901359E-03
              -7.9408638616425557E-04
               7.2176148266086459E-03
              -1.2167625734841732E-02
               1.7235360323231762E-03
              -8.7305998938619681E-04
              -6.1266739294640361E-03
               1.8114657884313205E-02
               2.9260342328879035E-03
               1.2752557559319375E-02
               5.9986501315981806E-04
              -7.0651592693986012E-03
              -6.6201608932105332E-03
               1.9729977338468272E-04
              -8.3814829464280982E-03
               1.8423137062968550E-02
              -3.5244972201335534E-03
               7.2605547254521756E-03
              -5.8556027248414574E-03
              -3.1475393572373573E-03
               4.6797631867228247E-03
              -9.7853418688294645E-03
              -4.4897679658405529E-03
               3.1392714767650869E-03
               3.8128728565979143E-03
               3.5057274049128781E-03
               1.2599665013145263E-03
               1.2472026033483465E-02
               2.1785034660109885E-03
               2.5272744870684098E-03
              -3.6247926440141917E-03
               2.9320047887209330E-03
               2.5700449665432275E-03
              -1.4000445666651810E-02
               1.5184065072077094E-02
               3.1492569000857945E-03
              -3.6702473566014270E-03
               1.4964999835682411E-03
               6.1750873177479002E-03
              -5.5065540853089043E-03
              -8.9978620916793470E-03
               9.4001253743780638E-03
               4.2010688964134475E-03
              -1.7423443842357988E-03
               3.9943956854745066E-03
              -8.7574882817202508E-04
               7.4450991610607881E-03
               5.8970755203868429E-03
              -9.1632041489207380E-05
              -3.7275923890636347E-03
               2.9469603705247279E-03
              -7.7611195864134060E-03
              -7.1248976146725705E-04
              -5.9340675404644739E-03
               4.5283131368544505E-03
              -3.5349192742506774E-03
              -4.4183636670133341E-03
              -1.4727267973387637E-03
               1.9305707750097822E-02
               2.0045578943194559E-03
              -8.5596176315595376E-03
               1.6461228410097312E-02
              -5.1032076575391197E-03
               4.4486965356174812E-03
               2.3459640532197358E-03
              -1.0041272546747491E-02
               5.0017621444383717E-03
               2.1031250445723272E-02
               1.6283235785128905E-03
              -2.0913214838126481E-03
              -1.4133394645648561E-02
              -1.4932822645139416E-03
               2.1316970904412700E-03
              -3.7128759950228905E-04
              -1.0065069465711028E-02
               2.0061161256334685E-03
               3.8852555895719353E-03
               6.1893996742799443E-03
              -9.0056379964753332E-03
               2.0590336778095786E-02
              -3.7788165821417306E-03
               2.7927188990722433E-03
               1.1466874389334933E-03
              -1.6501745714343772E-03
               9.6269777965435257E-03
               3.0795511562962167E-03
              -8.1825864947156195E-03
               3.3548505007303347E-03
               5.4655353087927475E-04
               4.0052577078844871E-03
              -9.4118849053027778E-03
               1.2689783740903512E-03
              -8.0102358535715477E-03
              -8.0464943391014877E-03
               4.3989968211702755E-03
               8.1293672253127669E-03
               7.5182140874894068E-04
               5.1565097200221115E-03
              -6.5761194016747404E-04
              -1.3477805659182155E-03
              -9.7570346204436127E-03
               4.7721978873141021E-03
              -4.0305997064380480E-03
              -1.0923713605856310E-03
               1.4469161404143390E-02
               9.7049583958747022E-04
              -3.9835873748940943E-03
               2.4500159603910374E-03
              -6.1215147494964855E-03
               2.6769200009985374E-03
               6.9166063878436830E-03
              -3.2772631773529981E-03
              -7.0364116336198478E-03
               9.1348214687690405E-03
               5.9668308045969162E-03
              -1.5585335843970663E-02
               6.4567642167598274E-03
               4.2452026275763815E-03
               8.4115834407305738E-03
               7.0888403373072471E-03
              -4.2102310209549314E-03
              -1.6761605242987128E-03
               6.0358658871697514E-03
              -9.4224397804147358E-03
              -2.0169764341890577E-03
               3.6340894325169186E-03
               9.2058189384156745E-04
              -3.4663872359673329E-03
               5.1314820777938084E-03
              -3.8498863152440135E-03
               5.5599015056784374E-03
              -1.2069952958764705E-02
               6.2641141356882509E-03
               9.5116695738363139E-04
              -1.0293229228928583E-03
              -5.2964434577267667E-03
              -6.3717489823868689E-03
               2.7578688529547933E-03
              -2.5041690212433956E-03
               3.3389294666008860E-03
              -3.3425881035474064E-03
               1.6952458601469843E-02
              -4.9841555937961256E-03
              -6.9588306311178455E-03
              -7.7372548122281123E-04
               5.6219198850384665E-03
               1.0529206278313909E-02
               3.1143599569604793E-03
              -5.1655128505523722E-03
              -1.6764581426040981E-02
               7.3660575906661918E-03
              -9.8523439380743174E-04
              -5.8031848522887520E-03
               1.0123261724030634E-02
              -1.8523585248332308E-03
              -1.4272978711892589E-03
               5.2632550180387212E-03
              -1.9795936678010683E-03
               1.7566233419585770E-03
              -1.0013471450644722E-02
              -8.9141117166685237E-03
              -7.0369579775503115E-04
              -4.0061449654243714E-04
               8.8530256168296087E-03
               1.1031442141216445E-02
               2.7627133410877114E-03
              -2.0568101107246821E-02
              -6.3125133199022328E-03
               1.3361829480545184E-02
              -4.5516464019400250E-03
              -3.5176428736483031E-03
               1.9669331310732127E-03
              -5.4240915580338021E-03
              -4.1529045188496167E-03
               1.3078988573026642E-03
              -7.8688427396742013E-03
               2.6865754100279557E-03
               4.0475875594398391E-03
               8.5548091845453495E-03
              -3.6843903492800576E-03
               1.8695698125135849E-04
               7.1458578969666453E-03
              -2.0167080602490971E-02
               1.1402561445814552E-02
               8.9196412048270592E-04
              -4.2607948481699172E-03
              -2.5488004878099858E-04
              -1.9377603734797894E-03
              -3.2230111688380595E-04
               3.6860788250812435E-03
               8.6209256018169678E-05
              -1.2173745458241823E-02
               8.5808168208675387E-03
               9.7355250248863882E-03
              -8.2700380255293134E-03
              -7.5127745324734194E-03
               2.5515299918132369E-03
              -4.6046025078536673E-03
              -4.7591108648855534E-03
              -1.7673838208484994E-03
              -2.1287357480860572E-03
               1.7128068255318762E-02
              -4.3315617768234773E-03
              -8.1071722036757127E-03
              -8.7991463676083967E-04
              -4.4909864449453312E-03
              -1.0697038682184138E-03
              -2.1516676934576913E-03
              -1.9833261873164379E-04
               1.3184836602757787E-02
              -7.8798229614744208E-03
               1.0781056437587288E-02
              -6.1642492281878481E-03
               5.5570290473883942E-03
              -2.5058795507168180E-03
              -1.5405402646872814E-02
               9.6916258689656812E-03
               3.1532731746649746E-03
              -1.7372543070325413E-02
              -3.5757668539152074E-03
               8.0401814198292616E-04
              -1.3354893187119917E-03
               1.7150610667396995E-02
              -2.7798491983050269E-03
               1.5282900475998306E-03
               2.5003193248089159E-03
              -8.4362610442435251E-06
               4.6148342209189792E-03
              -3.1600177920228785E-03
              -1.2781767827953141E-02
              -1.6797206306599609E-03
               1.3741049169126775E-02
              -5.1431104617562871E-03
              -6.9217361605362351E-05
               4.0613410320757860E-03
              -2.6260855796261486E-04
              -2.8861326317591038E-03
               1.1610912723650970E-02
               7.2771041493656582E-03
              -5.3842139224737429E-03
              -8.2868687335315855E-03
              -4.2332433082154224E-04
              -3.8332618453442062E-03
               2.6938483379176001E-03
               3.1213683555247704E-03
               6.5127031794513035E-03
              -4.2217680602121884E-03
               7.7807554500761633E-04
               2.5448112843826122E-03
               6.9075090020806543E-03
              -1.1803787098992029E-02
              -7.3119998658032013E-03
              -6.5267874985740857E-03
               6.3429769578460240E-03
              -1.2045273017522303E-03
               7.7189918230241789E-03
              -3.6719679749483503E-03
               1.5807437626780770E-02
              -2.1533196754643991E-02
               2.1644166814736906E-02
               2.2366333877498921E-03
               1.5628058711027537E-03
               6.6064838121151701E-05
               5.2457869934318026E-03
              -7.7363107134461205E-03
              -1.6899368327814564E-04
              -5.4730951764585898E-03
               6.8229823455594554E-04
               7.6778523579037923E-03
              -1.9251709531187631E-03
              -4.6100569816013848E-03
              -9.4755143178812363E-04
               1.1068847006159999E-02
               3.1442614786347557E-03
               2.1936927321048669E-03
              -2.8381335725334071E-02
               2.4086290566213843E-02
              -5.9477893451745940E-03
               7.0072709202410790E-03
              -7.5702701254680973E-03
               3.0621206740390683E-04
               7.7672345336177034E-03
              -5.7830331675095409E-03
              -3.8640793267902384E-03
               4.7396618521490354E-03
              -2.1930663508977328E-04
              -1.0515107615459750E-02
              -2.1883488025817980E-03
              -6.9848790978296058E-04
              -3.8103112620581588E-03
               1.4658621099386452E-02
              -1.9054435195739617E-03
              -6.7302621294993790E-03
               1.8194663653138131E-03
               1.1025502493753040E-02
              -1.2248565212707629E-02
              -7.9919499522573356E-04
              -5.2022069064148694E-03
               3.8902181482435683E-04
              -1.1054679933742135E-02
               3.7061196904371275E-03
               7.7852340029716709E-03
               6.9715629389075894E-04
               8.5578319433241030E-03
              -1.1025687212176546E-02
              -3.5203756575409506E-03
              -1.1998142376828766E-03
              -2.3535110333967120E-03
               1.6268438400464175E-02
              -6.7876455461836549E-03
              -6.4895984407166221E-03
              -3.7154234138968055E-03
               1.4822172649602885E-02
               1.5112730143677926E-03
               1.0105333693374356E-02
               1.5432663870620037E-03
               3.5047414423009476E-03
              -7.6503525854249299E-03
               1.1888555655313296E-03
               1.1512772200408871E-02
              -1.4186389202301343E-02
              -1.4714337718290586E-02
               1.6632886665656890E-02
              -6.0977084044885593E-03
               1.0805196975954083E-02
               6.0179410733848956E-04
               3.7915720873189060E-03
              -3.7563803339275134E-03
              -1.0749446451278840E-03
              -1.5834022880781761E-03
              -1.4479060613914558E-02
               6.9038809265601752E-03
              -3.1267835955596734E-03
               5.4484654100458094E-03
               5.1946313265250196E-03
               1.2927462443358894E-02
               1.6244953360506390E-03
              -1.2645489606478664E-02
               1.1948817853769641E-02
               3.6875027438581782E-03
              -8.0159250269052212E-03
               3.1391390483322141E-03
              -7.0879088342710502E-03
              -9.1523318525884266E-04
              -5.0441141676363611E-03
               7.0320790093365913E-04
               8.3113033952520430E-04
               9.4212505059473456E-03
               2.7903098110756705E-03
               1.0047207192338545E-03
               4.4839135699088102E-03
              -7.6840947326442298E-03
              -2.7502191000870540E-03
              -1.5259488939385033E-02
               1.3895579649498222E-02
               3.6777807556917859E-03
              -8.4486724738824254E-03
              -1.3146570143661654E-02
               1.5518543723725856E-02
               2.5471534758713002E-03
              -4.2430387436371312E-03
              -1.1495711253211962E-02
              -5.0295958987593052E-03
              -3.5556875597328114E-03
               1.7351048520931327E-02
               1.1184744256879379E-02
              -5.4566833924608454E-03
              -1.1509170048110537E-02
              -3.8777734157864605E-03
               2.4370802948337484E-03
              -3.3243717726527599E-03
               4.2009250214516099E-03
               9.2607331413343593E-03
              -4.4561700480446531E-03
              -1.0782340656123892E-03
               5.6793247368800903E-03
              -8.8007229454607431E-03
              -2.8666664097015872E-03
               6.2911775124018876E-03
               1.4010460824319172E-03
              -1.6742176447192439E-03
               2.0305229737180030E-02
              -6.0745035944241100E-03
              -2.0322306543028384E-02
               8.2403518337108399E-03
               2.1017404974884870E-03
              -1.1611465717896333E-03
              -4.7817966454771470E-03
              -5.1679342964893490E-04
              -9.0055513596986932E-03
               1.9210651086578722E-02
              -2.2366252927724347E-03
              -7.0517628734631608E-03
              -2.3859917582348270E-03
               1.0912507642264076E-03
              -7.2435619973333686E-03
               8.6321296401844824E-03
               4.5765429333107276E-03
              -2.8605911657103317E-02
               1.2789168511961161E-02
               7.2661813662316969E-03
              -7.5395148250274151E-03
               6.5087327067873046E-03
               2.1296975568451899E-02
              -3.5950947699450622E-04
               6.7696372028920220E-03
               5.2700846139332683E-03
              -6.6695963306644373E-04
               2.9988590173615605E-03
               7.4456905506999885E-04
               2.0882384978550975E-03
              -1.2753035065644234E-02
               6.3182213625797758E-03
              -7.0445364912965812E-03
              -1.8394642517555735E-04
               3.4255492479672860E-03
              -2.7824189449398998E-03
               4.8988039799903091E-05
               4.4047502619494394E-03
               8.4969476990393933E-04
              -2.5549963248350490E-03
               2.1101109509474021E-03
               7.7478356134019278E-04
               1.8900724521737611E-03
               1.3837593246832655E-03
              -1.0181875083071114E-02
               6.4128455362272834E-03
              -7.1254203263312567E-03
               4.1354935894940175E-03
               9.0012968526741229E-03
              -9.7776109301201848E-03
              -4.5163701056107506E-03
              -7.0462551996731786E-03
               6.8801015622760829E-03
              -1.3996607820910655E-02
              -4.0468115424652628E-03
               1.1029380074249365E-02
              -7.4376044397113103E-03
               9.2452505805991677E-03
              -9.4087613800435729E-03
              -1.4358248086532785E-02
              -1.9690363738330734E-03
               5.2988364987912638E-03
              -9.5617747409087704E-03
              -7.3930718421766125E-03
               4.1250932061394517E-03
               6.9050737586153340E-03
               1.2799224665298883E-02
              -6.7390782737216442E-03
              -4.8389309972365121E-03
              -6.4764415429942610E-03
               3.0668817266757235E-03
               7.5100933628489555E-03
              -1.1907916357330656E-02
              -8.1067065937401820E-03
               2.1969388362015192E-02
               4.3337814600567359E-03
              -1.5670597044158234E-02
              -7.0651519903534802E-03
               4.3566016901221711E-03
              -3.2635847294205755E-03
               4.1267407809472351E-03
              -1.1566716039895763E-04
              -6.1008049304708259E-04
               7.1891924436681583E-03
              -1.1596212644011606E-02
               3.3613732209686570E-03
              -4.3620278496914891E-03
               1.2587899701845689E-02
               2.1196701572396759E-03
               6.9715204037442682E-03
               2.5469945382345510E-05
              -1.0367137062901796E-03
              -6.7056207514326815E-03
               7.4867691736203168E-03
               8.3094198983025454E-03
               2.9787185388971044E-03
              -3.2527960045526704E-03
               6.3153903244622938E-04
              -6.3200438226655919E-03
               5.8497796264718556E-03
               1.9256876840278432E-03
               9.7843324443944862E-03
              -7.2036987173648738E-03
              -2.6641037771921996E-03
              -3.1652958322792436E-03
              -2.3299917112177947E-03
              -3.5539010304573970E-03
              -1.7675926801148799E-03
              -1.4722864600975121E-03
               3.3289426632454248E-03
               8.0141690036997608E-03
               4.6945799694170665E-03
              -1.3080924178617524E-02
               1.5149518898060403E-03
               3.6592405833951996E-04
               1.8524552714559894E-03
               1.2272714267372203E-03
               7.3575641019570258E-03
               7.6433115556968575E-04
               1.8786423982158095E-03
              -1.0334396996378241E-02
              -6.9986311378245417E-03
               4.9203503298606453E-03
              -9.7367625976839036E-03
               1.9009471767118531E-03
               8.1633479512384127E-04
              -2.1280076027542219E-03
               7.9485887783520672E-04
              -1.3802535941751710E-03
               7.5896894904918608E-03
              -3.1014061911295706E-03
              -2.7424422212838483E-03
               1.3558892371379580E-03
              -1.0664151520722587E-03
              -6.5927608114436306E-03
              -4.4662912073361394E-03
               7.6043161083617118E-03
               5.1500375393634164E-03
               2.9274502405360477E-04
              -1.1723896009377843E-02
              -1.3032665971728455E-02
               1.5229915399588291E-02
               3.9044327105800247E-03
               5.9628036789352501E-03
              -3.8288718319817406E-03
              -1.0784430545825872E-02
               5.1425956609243446E-03
              -1.7380710354529877E-03
              -1.3259453771025774E-02
              -3.4845593261634395E-03
              -9.8887144058841421E-03
               1.8245631779405054E-03
              -2.3331604461825257E-03
               1.1671495206199386E-02
               5.2024966200732818E-03
              -8.0468703325536689E-04
              -8.4078887691068169E-03
              -1.8978625638968054E-04
               1.1904009306765136E-03
               2.1790216265667973E-03
               2.0322926978640151E-03
               5.0206506519406080E-03
              -5.3610671671331491E-03
               8.8098649534077804E-03
               7.2750491990726156E-03
               9.1168444538033207E-04
              -2.0619936247507574E-03
               1.7023264144288858E-04
              -2.0526087475099346E-03
              -5.5527332402207676E-04
               5.6995350971718274E-03
               1.4310371211470344E-02
              -1.1829429208858828E-02
              -1.1931769329025311E-02
              -5.5672969379471473E-03
               1.1260389181593585E-02
              -2.5334433796989782E-03
               2.2284263871825668E-03
               1.6530732115313746E-04
              -8.8574363781291927E-03
               1.1525871514611648E-02
              -2.2130663363653059E-03
              -3.5882504992254408E-03
               1.2532348255913532E-02
               6.2588903129123371E-03
              -4.8599610754530159E-04
               7.3337379193497672E-03
              -5.6448194249673926E-03
              -1.1955293007133022E-02
               3.5625363920759696E-03
              -4.1604948194364014E-03
               1.8912242136873564E-03
              -2.0200658765684876E-03
              -3.0137255328752917E-03
         &END THERMOSTAT_ENERGY
         &RNG_INIT
Wiener process for Thermostat # 1        1 F T T   3.7280401166127353E-01        2396824340.0        1285798124.0        1970812289.0        4262378425.0        2500496477.0        3105761546.0             12345.0             12345.0             12345.0             12345.0             12345.0             12345.0             12345.0             12345.0             12345.0             12345.0             12345.0             12345.0
Wiener process for Thermostat # 2        1 F T T  -2.8031459711754392E-01        1517340215.0         764337745.0        1777988352.0        1272471177.0        3093987526.0        2495380513.0        3692455944.0        1366884236.0        2968912127.0         335948734.0        4161675175.0         475798818.0        3692455944.0        1366884236.0        2968912127.0         335948734.0        4161675175.0         475798818.0
Wiener process for Thermostat # 3        1 F T T   7.0414863813957229E-01        1874984675.0        3540139467.0        3102430019.0        1608426380.0         643336117.0        1230365417.0        1015873554.0        1310354410.0        2249465273.0         994084013.0        2912484720.0        3876682925.0        1015873554.0        1310354410.0        2249465273.0         994084013.0        2912484720.0        3876682925.0
Wiener process for Thermostat # 4        1 F T T   2.2606224243119818E-01        3416187057.0        1637601412.0         393440280.0        2948182120.0        3407482107.0        2343296956.0        2338701263.0        1119171942.0        2570676563.0         317077452.0        3194180850.0         618832124.0        2338701263.0        1119171942.0        2570676563.0         317077452.0        3194180850.0         618832124.0
Wiener process for Thermostat # 5        1 F T T  -1.0267294306732384E+00         315072143.0        4137263975.0        4196656129.0        1282237791.0        3639735469.0        1937530485.0        1597262096.0        3906379055.0        3312112953.0        1016013135.0        4099474108.0         275305423.0        1597262096.0        3906379055.0        3312112953.0        1016013135.0        4099474108.0         275305423.0
Wiener process for Thermostat # 6        1 F T T   9.2624835653208748E-01        3222219212.0        3105331301.0        2094058484.0        2511776071.0        3719186732.0        3505559269.0          97147054.0        3131372450.0         829345164.0        3691032523.0        3006063034.0        4259826321.0          97147054.0        3131372450.0         829345164.0        3691032523.0        3006063034.0        4259826321.0
Wiener process for Thermostat # 7        1 F T T  -4.6721006089689310E-01        2921304001.0        3534845789.0         764942181.0        2980414860.0        2807768180.0         274774080.0         796079799.0        2105258207.0         955365076.0        2923159030.0        4116632677.0        3067683584.0         796079799.0        2105258207.0         955365076.0        2923159030.0        4116632677.0        3067683584.0
Wiener process for Thermostat # 8        1 F T T   4.8809173354813140E-01        3327178806.0        3682317356.0        2663069382.0         319044460.0        3975670735.0         562702070.0        3281794178.0        2616230133.0        1457051261.0        2762791137.0        2480527362.0        2282316169.0        3281794178.0        2616230133.0        1457051261.0        2762791137.0        2480527362.0        2282316169.0
Wiener process for Thermostat # 9        1 F T T  -8.1805399140306756E-01         433221438.0         349071730.0        2033385903.0        2639944804.0        3988392127.0        3801627598.0        3777646647.0        1837464056.0        4204654757.0         664239048.0        4190510072.0        2959195122.0        3777646647.0        1837464056.0        4204654757.0         664239048.0        4190510072.0        2959195122.0
Wiener process for Thermostat # 10       1 F T T  -2.7062828385550008E-01        2290601073.0        1666814614.0        3289919364.0        2930088785.0        1500929831.0        1860303943.0        4215590817.0        3862461878.0        1087200967.0        1544910132.0         936383720.0        1611370123.0        4215590817.0        3862461878.0        1087200967.0        1544910132.0         936383720.0        1611370123.0
Wiener process for Thermostat # 11       1 F T T   6.8652417552969780E-01        2151060734.0         580174056.0        1748210725.0         399674445.0        1879492130.0        2741776977.0        1683636369.0         362165168.0         814316280.0         869382050.0         980203903.0        2062101717.0        1683636369.0         362165168.0         814316280.0         869382050.0         980203903.0        2062101717.0
Wiener process for Thermostat # 12       1 F T T   1.2985463821691814E+00        3478492904.0        1830493925.0          17364685.0        2058676739.0        2676153401.0        4087350495.0         272317999.0         166758548.0         310112982.0         201045826.0        1680231254.0         118290799.0         272317999.0         166758548.0         310112982.0         201045826.0        1680231254.0         118290799.0
Wiener process for Thermostat # 13       1 F T T   2.0061703114922356E+00        2097018817.0        1300727704.0         367347443.0         582130443.0        2824054692.0        3111690587.0        2245755202.0        1652682525.0        2865544364.0         721509566.0         209733568.0         592362218.0        2245755202.0        1652682525.0        2865544364.0         721509566.0         209733568.0         592362218.0