 # Version information for this restart file 
 # current date 2023-12-06 10:23:31.518
 # current working dir /scratch/work/courses/CHEM-GA-2671-2023fa/students/tje3676/comp-lab-class/Week12/Runs/Water
 # Program compiled at                              Sat Dec 12 18:27:15 EST 2020
 # Program compiled on                                         cs001.nyu.cluster
 # Program compiled for                                                nyu-intel
 # Source code revision number                                       git:8c64c6e
 &GLOBAL
   PRINT_LEVEL  LOW
   PROJECT_NAME water_aimd_1ps_every0.5fs
   RUN_TYPE  MD
   WALLTIME 21600
 &END GLOBAL
 &MOTION
   &GEO_OPT
     OPTIMIZER  BFGS
     MAX_ITER  100
     MAX_DR     3.0000000000000001E-03
     &BFGS
     &END BFGS
   &END GEO_OPT
   &MD
     ENSEMBLE  NVT
     STEPS  2000
     TIMESTEP     4.9999999999999994E-01
     STEP_START_VAL  500
     TIME_START_VAL     2.4999999999999795E+02
     ECONS_START_VAL    -1.1023558357480224E+03
     TEMPERATURE     3.0000000000000000E+02
     &THERMOSTAT
       TYPE  GLE
       REGION  MASSIVE
       &GLE
         NDIM  5
         A_SCALE     1.0000000000000000E+00
         A_LIST     1.8595758612559999E+02    2.7263853498399998E-01    1.1526100454610001E+01   -3.6414578262600003E+01 \
             2.3173375816020001E+02
         A_LIST    -2.7809524712060002E-01    8.5951591808710006E-05    7.2189048017650004E-01   -1.9844539343859999E-01 \
             4.2409257583420001E-01
         A_LIST    -1.4825808131210000E+01   -7.2189048017650004E-01    1.3590902121280000E+00    5.1498896280349999E+00 \
            -9.9949268450990001E+00
         A_LIST    -1.0372189126880000E+01    1.9844539343859999E-01   -5.1498896280349999E+00    2.6661910891169999E+01 \
             1.1507715495310000E+01
         A_LIST     2.1801346360420001E+02   -4.2409257583420001E-01    9.9949268450990001E+00   -1.1507715495310000E+01 \
             3.0958394565589998E+02
         &THERMOSTAT_ENERGY
              -5.0135734776138854E-03
              -5.3873679071482830E-04
              -1.3717603085939361E-03
               2.2392162878233451E-03
              -5.5006263895864705E-03
               6.8038941729443476E-03
              -3.4504609116155489E-03
              -3.3320736870381330E-03
               4.9215557391943578E-03
               5.8394368962172449E-04
               6.7959962873395431E-03
              -3.2281847404359611E-03
               1.5076288884095486E-03
               9.0792945809074147E-05
              -2.2353808992276042E-03
              -4.0611450808933393E-03
               5.5415582656124429E-03
              -4.0424075870080008E-03
               5.5483172529779161E-03
              -2.7439077893095750E-03
               7.2956358354249180E-04
              -3.6957605448481694E-03
              -1.5978770288342997E-03
               2.8558354122475977E-03
              -1.0470037042265787E-03
              -2.6818208894908357E-03
              -1.2328586024883072E-04
               3.8731788969793069E-03
               2.1697077492387742E-03
               6.0611384758069424E-04
              -5.4143734422078277E-03
               2.7314948238044198E-03
               3.8176574908191777E-03
               2.0804586212881847E-04
              -2.1773553075935172E-03
               4.1773804585989857E-03
              -1.3914435911237259E-03
               9.8055112642692218E-04
               7.2162321290050973E-04
              -3.0301615672735185E-03
              -8.1856705947654866E-04
              -1.1793756557094649E-03
               6.1025252250816232E-04
               2.4130561817571681E-03
              -5.7909316982460565E-03
               3.1027094131292391E-03
              -4.3123418612214608E-04
               3.3738165804043777E-03
              -4.2064479281497969E-03
              -1.0298414814238182E-03
               1.6521801300651629E-03
              -6.4926703963370178E-03
               1.2413519128334017E-03
               6.9915294230748623E-03
              -5.4841586680382318E-03
               3.2559862272702206E-03
              -7.6460145967890080E-04
              -1.8017113555749487E-03
               1.6245314120804431E-03
               2.8914987669034393E-03
               1.7255143075283912E-03
               2.2432773754988609E-03
               4.1688555470627206E-03
               1.6651550198546548E-03
              -1.6462307578318570E-03
              -2.2838600408336923E-03
              -5.3441448196464101E-03
               1.5088147227211484E-03
               2.0331210711322027E-03
               4.9022795304649765E-03
              -1.2233953288717774E-03
              -1.6682848326497713E-03
              -1.1490580625740071E-03
               1.7196152621025667E-03
              -1.7659103940685554E-03
              -4.5068216179846004E-03
               3.7570886905999856E-03
               1.7227902697189682E-03
               6.3484143851680868E-03
              -3.0961844316964152E-03
              -2.5707878983101530E-03
              -6.5120413555948774E-04
               1.3604051903449218E-03
              -3.5556006599160800E-03
               2.1994993299511234E-03
              -4.5652028417413748E-04
              -4.8814864785387590E-03
               1.8851596450262990E-03
               2.6028745829543053E-03
              -2.1662733035786633E-03
               3.2184776651441628E-03
              -4.9833948970788204E-03
               2.0885054035682952E-03
              -3.2438017801099217E-03
              -7.0688110570759867E-03
               3.6288819054243514E-03
               3.1288929325043067E-03
               2.5008297334074817E-04
               1.0857210317112311E-03
               8.4747767184064899E-05
              -7.9719357559969602E-04
              -3.8146083764001287E-03
              -1.8548076885511399E-03
              -1.4247245708408653E-03
               1.9521451400385547E-03
               5.8170396583348358E-03
              -1.1298234684034062E-03
              -2.5570013909450543E-03
               4.2317308425449196E-03
              -3.6672278219585519E-03
               3.6189014442981971E-03
              -8.0597693101807960E-04
               2.5424835562606871E-03
               1.0549961791039371E-03
              -1.9097332824878142E-03
               1.0314226188339342E-02
              -1.5302531287705572E-02
               2.3311586878597208E-03
              -1.9589007496813022E-04
               7.3244963427334308E-05
               3.0521502382185959E-03
               3.1583902490318577E-03
              -3.3108743322627699E-03
              -3.0798698330855422E-03
              -5.1361555411948224E-03
               1.8241000093830991E-03
              -4.7060153387867669E-04
               3.1987362763703127E-03
               3.6212358594258595E-03
               1.3105817012699010E-03
              -6.4475019055529651E-04
               9.8660096637275809E-04
              -1.3420723763633113E-03
               2.6718081101847029E-03
              -3.4385754000450224E-03
               2.8197638091470584E-04
              -2.6949410377865388E-03
              -2.6235133706292870E-04
               6.7860697638454342E-04
              -5.3220303568910429E-03
               7.7819084163166293E-03
               1.0677254839901768E-03
               9.8310048135110588E-04
              -1.6542170182175292E-03
              -7.3940252542660371E-04
              -2.7217688173317238E-03
               3.5712210601390076E-04
              -8.6850552046123606E-04
              -6.4206960365526477E-04
               6.5023669941767859E-03
              -2.6767732432914360E-03
               5.7306446793667408E-04
              -6.2201673479745691E-04
              -7.2251302696810693E-04
               9.5419649249924498E-04
              -1.7984151289057472E-03
               3.1566542776796068E-03
               1.7939515083829774E-03
              -3.3715988270518345E-03
               2.4425429408135445E-03
              -4.4372911453319534E-03
              -1.4139310862649956E-03
              -1.3088109906194650E-03
               1.7475027680291313E-04
               2.8195170593145217E-03
               5.9589710102804514E-03
               2.9702200035165026E-03
              -5.5296896621343326E-03
              -8.7290635951916863E-03
               1.0567993011690147E-02
               1.7318000552123678E-04
              -6.2281841604752567E-04
              -4.4995748881361249E-04
               2.8500075246868572E-03
              -2.4775972263272007E-03
               1.9955352140516680E-03
              -5.5285802048131568E-04
               4.3901899141792870E-03
               2.5466524452251696E-03
               6.0066083194417613E-04
              -1.7310925119470599E-03
               1.3260483478380164E-03
               2.6759931158533905E-03
              -8.1337055746374242E-03
               1.7560100100701577E-03
              -5.1841946870807029E-04
              -1.1965967195912137E-03
               7.6889295683907006E-03
              -2.7367518550658852E-03
              -1.2919997826981299E-03
               4.8121589140146621E-04
              -2.3773152868334321E-03
               4.3035191680300877E-03
              -2.0053503814706436E-03
               5.5739520038803703E-04
              -2.8557649184642086E-03
              -1.2399560769030954E-03
               8.8599555407499063E-04
              -2.0245919703173699E-03
              -1.1485285343720310E-04
               8.9444098992558880E-04
              -1.2442867192357225E-03
               6.2407824275824324E-03
              -3.8911152681710625E-04
              -7.5601434179499430E-03
              -9.9675678455755207E-04
              -2.7532886664879282E-03
              -7.3756497440799723E-04
              -1.4328565301138059E-03
               2.1174725786976770E-03
              -1.5367423648843703E-03
              -1.0439234018012280E-04
               6.4114403469737596E-03
              -7.0051749288460212E-03
               6.4346953655091757E-03
               6.2384112777763654E-04
              -2.9044032114604133E-03
               2.7995336058588833E-03
              -3.3523158872796272E-04
              -3.9987523870940829E-03
               1.6239643547528927E-03
              -1.6403036378548328E-03
              -2.6191566771295183E-03
              -1.4916183676197360E-04
              -1.1586367393736545E-03
               1.0787643880963761E-03
               8.2978920596228395E-04
               5.6310816285185398E-03
              -5.2037657853438160E-03
               4.0857426666132523E-03
              -1.0411125159769257E-02
               3.5596021692699746E-03
               8.7850352008365835E-03
              -3.6950841366417339E-03
              -1.1455616495141137E-03
              -1.9208516137065833E-03
              -2.8072132742102745E-03
               1.6094033006757275E-03
               4.8769207539667986E-03
               1.2354788417312018E-03
              -1.7842668643616116E-03
              -1.3448790692927011E-03
               3.6685941417629229E-03
               3.8349552534107123E-03
              -2.7804462914481206E-03
               2.1497923493898029E-03
              -1.1370133273932480E-03
              -1.3291536048180559E-03
               1.0838164765414634E-03
              -2.9695190047284454E-03
               1.5123393539573601E-03
               1.0193932022416015E-03
              -2.6813327308364632E-03
              -1.7902797551415640E-03
               1.3960361200777720E-03
              -6.6483533985340210E-03
               5.5470253166618241E-03
               1.2613779931624086E-03
               1.6712463738179277E-03
              -4.5430634975203669E-03
               5.2782787212458451E-03
               2.4421712827958682E-03
               1.1532856139825081E-03
               3.7374891266877245E-04
               2.8390671732115593E-04
              -5.3316676143527475E-03
              -2.0292277765434638E-03
               2.5413022765205838E-03
              -3.3821208310399449E-03
               3.4028053895008357E-03
              -1.2721935257726383E-03
              -1.9043569960467209E-03
               1.3336151874740727E-03
               2.9983949743671782E-03
               1.1955089574180345E-03
              -2.0404081269608872E-03
              -7.6760340313777632E-03
               2.9102107683380901E-03
              -4.8719309013951981E-03
               2.9351120434776504E-03
              -1.8576010322882675E-03
               3.9674849202240587E-03
               3.1813192094562450E-03
              -2.8466363772007286E-03
              -5.4270521359631322E-03
               3.1936525313409599E-03
              -1.3694348302374364E-03
              -3.8368931534447487E-03
              -3.3595937423410720E-03
               2.3850829137479594E-03
               1.0153713923584991E-03
               3.1344545549956472E-03
               2.2203597014584294E-03
              -2.5094112722226208E-03
               1.0103112401087283E-03
               1.6146323518977474E-03
              -6.7877943957731805E-03
              -1.8143133408059391E-03
               6.6933238205791755E-04
              -2.0872981775680952E-03
              -4.8896253895168666E-03
               5.3341468002368305E-03
               4.5921556861939017E-03
               2.8278480668869621E-04
               2.6188484983658477E-03
              -2.2089482448539753E-03
              -1.7090860077646163E-03
               9.6227561204158707E-04
               6.4384045789618160E-04
               4.6898802850759858E-03
              -5.8862958748375914E-04
              -9.4240715378214168E-03
               4.2496073642483163E-03
               5.1386816849209559E-03
               2.3658409852248294E-03
               4.2905153048211691E-03
               8.4635210007360140E-04
               4.0269326176417932E-03
              -2.0773721765021311E-03
              -2.3497120159026927E-03
               4.8493704080347557E-03
              -3.2562822173839304E-03
              -6.7216575142808096E-03
               9.3240392056292785E-03
              -8.8675005462170240E-04
               2.9396707346480387E-03
              -1.0460126845458625E-03
               3.8072753039711405E-03
               5.5281621816247650E-04
              -4.7731468501270484E-03
              -3.1673788828438434E-03
              -8.2684274145498251E-03
               8.3803396106795526E-03
              -3.1206303561417124E-04
               1.9239186487788214E-03
              -2.1213004522434324E-03
               1.1436865785188769E-02
               2.0811411758539168E-03
              -4.4274345118745281E-03
              -2.9543399892904272E-03
               3.5438974929192847E-03
               1.5528542920457972E-04
               1.9479854644331926E-03
               1.8639215882073933E-03
              -8.8603180241722166E-04
              -6.6589015171428963E-03
               6.9315198195861486E-03
               3.6023424230274034E-04
               1.2132382112742067E-04
              -5.8612033575431771E-03
               3.3551582481322019E-03
               2.2216182929198319E-03
              -6.2206887622189549E-03
               2.1543057755227775E-03
              -2.5083372246843356E-03
               7.4053601140822226E-03
              -4.4484112154819814E-03
              -4.5755671501335188E-04
              -5.6905302406467231E-03
               9.9296954802424956E-03
              -1.3470972824104685E-03
               2.3029170461816653E-04
              -4.6603537465625946E-03
              -7.9339800506486678E-03
               2.0443754710414669E-03
               1.1776807944154470E-02
               2.1383869454568295E-03
              -1.6901188281895243E-03
              -3.2718490368837481E-03
               6.3388365100574737E-04
               1.8329935382903565E-03
              -2.1509490085720741E-03
              -8.6374152249852829E-03
              -4.9897459087236912E-03
               6.0021152791976196E-03
              -3.1201311014419156E-03
               9.4354636104355223E-05
               6.5217695737395127E-03
              -2.2636387237460775E-03
              -1.0771742013658350E-03
              -1.6002671009667435E-03
               3.4823238177211372E-03
               9.7671994489838751E-03
              -8.6753262750771350E-05
              -1.0918147651294801E-02
               7.8803938323906732E-03
              -1.4047821456939572E-03
              -5.7370576464665247E-03
              -1.0399466384563574E-03
              -1.4190633103560548E-03
               2.4189456493604812E-03
               3.0891168762374860E-03
               7.6263201834103123E-04
               2.2067076537460881E-03
              -3.7951758425966244E-03
              -3.0433167083452886E-03
              -1.1154183682460922E-03
               2.6655164280791279E-03
              -2.5019013295580063E-04
              -2.7239675726936129E-03
              -1.4738602305856164E-03
               9.1971557297678974E-03
              -9.8577493157725928E-03
               3.0308652332694179E-03
               6.8965490283142659E-03
               3.3504314209054705E-04
              -1.4637178788805419E-03
               5.9415709860571441E-03
              -8.8633435976670956E-03
               2.0074064151990268E-03
               3.1392849245402529E-03
              -6.3289936427629665E-04
              -2.2281239046086586E-03
               5.3854345416191928E-03
              -6.4593333363584960E-03
              -3.9546277188570672E-03
               1.8864767144430256E-03
              -6.7355875002684052E-03
               2.4503925033646126E-03
               1.2453712888619762E-02
              -3.2789488287658804E-03
              -4.4109245591281246E-04
               2.1798858616953148E-03
               3.9425804366243185E-03
              -4.0275313799091423E-03
              -2.7115835707801654E-03
              -3.6115698865077711E-03
               3.5597060797752551E-03
               2.7448384276041783E-04
              -2.2964820439353079E-03
               6.4468480686532604E-04
              -3.6247974486163718E-03
               2.3475359483590172E-03
              -3.3839624735823286E-03
               9.2663811909979266E-04
              -6.6865422194192642E-03
               2.0721285994688878E-04
               5.2851117277933268E-03
               3.6148319252878904E-03
               4.4566779721848622E-03
              -3.5087662573371971E-03
              -6.0759826982735360E-03
              -3.0818797521443641E-04
               4.9759817359357559E-03
               9.0016862206157133E-04
               1.2150428451548571E-03
               5.9714193795174972E-04
              -4.9958881424344683E-03
               6.2372992994275999E-03
              -1.2219378121967187E-03
              -2.9182647589581939E-03
              -3.4467509456754548E-03
               4.9678849444421908E-03
              -3.2574162569432132E-03
              -4.7588112111223531E-03
               3.5871331934081809E-04
               8.8234472077222022E-03
              -8.8669682967943027E-04
              -2.9212036786464301E-03
              -5.1400652927669638E-04
               3.5127876783140567E-03
              -2.6458780939722184E-03
              -2.0994123006352868E-03
              -5.6227506282209763E-03
               2.1295646557791871E-03
               5.2313770815902200E-04
              -1.1837933217385401E-03
               3.2534539171605245E-03
              -4.4328184379773096E-03
               1.4715292065237823E-03
              -1.3671964716752657E-03
               6.5832297027524633E-03
               4.9162478176218837E-06
              -1.2617506240571298E-03
               8.1033896550062722E-03
               1.2909980527282497E-03
               3.6204213053604483E-03
              -2.3960761406849248E-04
              -2.5398273145369301E-03
               1.4072917070394703E-03
              -5.3785316055240994E-04
              -4.3287777008768720E-03
              -5.3082661098225923E-04
              -1.0294146888271110E-03
               3.1114828426333788E-04
               3.0270532960235003E-04
              -2.0082812102734824E-03
              -4.6187724188907209E-03
              -9.5000912489000082E-04
              -6.0248943053642758E-04
               2.2375777251667437E-04
              -1.6871761381511802E-03
              -1.0692225066561136E-02
               7.1325591790193784E-03
               1.7586659975540428E-03
               8.6454359322961100E-04
              -1.2932606875714473E-03
              -1.6037740066354696E-03
               3.3521084522933520E-03
               2.0350384432082204E-03
               3.1242517487365179E-03
               2.7920986892609532E-03
              -5.9561701167964373E-03
              -3.4292564672017975E-03
               1.4126387866121321E-05
              -2.7560692984923358E-03
               2.5816834761896524E-03
              -2.4142831590779931E-03
               9.6099718632056011E-04
               8.4891473093641760E-04
               5.3069353663583163E-04
               1.1809477661786300E-02
              -1.1944750566555348E-02
              -3.4735165467688197E-03
               1.5993464530282952E-03
               2.2361859314341944E-03
              -5.5453700894536485E-03
              -7.4540397052837019E-04
               7.2335007609293598E-04
              -1.7742453470373407E-03
               4.5577612303871239E-03
              -8.2588862525264789E-03
              -1.2704481550488897E-03
               5.6220074204927370E-03
               1.2698079342013757E-03
              -1.2420523127618151E-03
              -5.2106242976134136E-03
              -2.9687326170115928E-03
              -2.3654820024603628E-04
               3.7682044833251579E-03
              -4.1016653926921193E-03
              -5.9961609203291316E-04
              -3.1262632819809718E-03
              -3.5046216533408656E-03
               4.5270078106061573E-03
              -2.1193886939899400E-03
               2.1490596757671766E-03
              -1.7079675920358083E-03
              -2.0521434738547031E-03
              -1.0980180683965587E-03
              -1.8502718292788764E-03
               2.8298782049347249E-04
               3.7046935665603939E-03
               1.1958656957176560E-04
               2.9852746929643612E-03
              -2.0751880432370745E-03
               5.3989384371436183E-05
               3.6585070627453177E-03
              -3.6473691289041835E-03
              -1.0340359107211688E-03
              -2.5147645908946488E-03
              -4.8184733959961692E-03
               2.3150720254161497E-03
               1.0401868331353828E-03
               5.2173630968505545E-04
              -8.5468470138790695E-03
               2.7744086086637335E-03
               8.8579235570244042E-03
              -3.8418976489491396E-05
              -1.8935183436956326E-03
              -8.9259203271744463E-04
              -3.1243710638007402E-03
              -3.8968425719877091E-04
               4.1850498441384273E-03
              -4.5315491426423929E-04
               3.8905271681162435E-03
              -4.5696589087237119E-04
               2.6960266373522051E-03
              -1.1791382104164487E-03
              -2.9840203776655820E-03
              -5.8277544957296918E-03
               1.1035411240261513E-03
               4.5810598568731993E-03
               4.2346381557678298E-03
              -4.0542068675424349E-03
              -1.6995643771593064E-03
         &END THERMOSTAT_ENERGY
         &RNG_INIT
Wiener process for Thermostat # 1        1 F T T  -1.5505429657892764E+00         661802595.0        2026459976.0        3136775027.0        3268219721.0        1056216878.0        3744216088.0             12345.0             12345.0             12345.0             12345.0             12345.0             12345.0             12345.0             12345.0             12345.0             12345.0             12345.0             12345.0
Wiener process for Thermostat # 2        1 F T T   1.5766939834860993E-01        2521559082.0        1979391111.0        3972826820.0        2839528192.0        3960449033.0        3051881342.0        3692455944.0        1366884236.0        2968912127.0         335948734.0        4161675175.0         475798818.0        3692455944.0        1366884236.0        2968912127.0         335948734.0        4161675175.0         475798818.0
Wiener process for Thermostat # 3        1 F T T  -1.6802103653762466E+00        2464096834.0        3454226368.0         668358963.0        3607867155.0        2139338144.0        1695442074.0        1015873554.0        1310354410.0        2249465273.0         994084013.0        2912484720.0        3876682925.0        1015873554.0        1310354410.0        2249465273.0         994084013.0        2912484720.0        3876682925.0
Wiener process for Thermostat # 4        1 F T T  -9.2120442907176847E-01        3007810664.0         626544053.0           5688727.0        2019501767.0        4050809287.0        2188826537.0        2338701263.0        1119171942.0        2570676563.0         317077452.0        3194180850.0         618832124.0        2338701263.0        1119171942.0        2570676563.0         317077452.0        3194180850.0         618832124.0
Wiener process for Thermostat # 5        1 F T T   1.9586792436148486E+00        3119398129.0        2238966874.0        1731687009.0        1729823850.0        3912388439.0         182524877.0        1597262096.0        3906379055.0        3312112953.0        1016013135.0        4099474108.0         275305423.0        1597262096.0        3906379055.0        3312112953.0        1016013135.0        4099474108.0         275305423.0
Wiener process for Thermostat # 6        1 F T T  -2.2012851380256623E-01         527820745.0        2447393615.0         338698828.0         653439858.0         976211817.0        3944196308.0          97147054.0        3131372450.0         829345164.0        3691032523.0        3006063034.0        4259826321.0          97147054.0        3131372450.0         829345164.0        3691032523.0        3006063034.0        4259826321.0
Wiener process for Thermostat # 7        1 F T T  -1.2191095662093037E-02         167278661.0        2992638024.0        1197931920.0         124710794.0         889033703.0        2194094787.0         796079799.0        2105258207.0         955365076.0        2923159030.0        4116632677.0        3067683584.0         796079799.0        2105258207.0         955365076.0        2923159030.0        4116632677.0        3067683584.0
Wiener process for Thermostat # 8        1 F T T  -2.6373530393371375E-01        2923147749.0        3809475671.0         892364519.0        3114385888.0        3523415917.0        3402922821.0        3281794178.0        2616230133.0        1457051261.0        2762791137.0        2480527362.0        2282316169.0        3281794178.0        2616230133.0        1457051261.0        2762791137.0        2480527362.0        2282316169.0
Wiener process for Thermostat # 9        1 F T T  -1.2388913960989989E+00         276694386.0        3384434371.0        2194062143.0        3864498526.0        2498625561.0        4174179731.0        3777646647.0        1837464056.0        4204654757.0         664239048.0        4190510072.0        2959195122.0        3777646647.0        1837464056.0        4204654757.0         664239048.0        4190510072.0        2959195122.0
Wiener process for Thermostat # 10       1 F T T  -6.9271884074884071E-01         298842605.0        4183294382.0        3769908432.0        1623977651.0        3452521187.0         349927101.0        4215590817.0        3862461878.0        1087200967.0        1544910132.0         936383720.0        1611370123.0        4215590817.0        3862461878.0        1087200967.0        1544910132.0         936383720.0        1611370123.0
Wiener process for Thermostat # 11       1 F T T  -3.9199517781213300E-01        1183014876.0        2469777470.0        2706060047.0        1374668043.0         490283634.0         131761905.0        1683636369.0         362165168.0         814316280.0         869382050.0         980203903.0        2062101717.0        1683636369.0         362165168.0         814316280.0         869382050.0         980203903.0        2062101717.0
Wiener process for Thermostat # 12       1 F T T   1.2248374085476998E+00         744312290.0        1838623065.0        1895433531.0        2930723882.0        3034111406.0        1223209339.0         272317999.0         166758548.0         310112982.0         201045826.0        1680231254.0         118290799.0         272317999.0         166758548.0         310112982.0         201045826.0        1680231254.0         118290799.0
Wiener process for Thermostat # 13       1 F T T   1.6053528300026945E-02         341235087.0         365462780.0         607175623.0        3292057964.0        1611524565.0         256574977.0        2245755202.0        1652682525.0        2865544364.0         721509566.0         209733568.0         592362218.0        2245755202.0        1652682525.0        2865544364.0         721509566.0         209733568.0         592362218.0