 # Version information for this restart file 
 # current date 2023-12-06 14:41:47.957
 # current working dir /scratch/work/courses/CHEM-GA-2671-2023fa/students/tje3676/comp-lab-class/Week12/Runs/Water
 # Program compiled at                              Sat Dec 12 18:27:15 EST 2020
 # Program compiled on                                         cs001.nyu.cluster
 # Program compiled for                                                nyu-intel
 # Source code revision number                                       git:8c64c6e
 &GLOBAL
   PRINT_LEVEL  LOW
   PROJECT_NAME water_aimd_1ps_every0.5fs
   RUN_TYPE  MD
   WALLTIME 21600
 &END GLOBAL
 &MOTION
   &GEO_OPT
     OPTIMIZER  BFGS
     MAX_ITER  100
     MAX_DR     3.0000000000000001E-03
     &BFGS
     &END BFGS
   &END GEO_OPT
   &MD
     ENSEMBLE  NVT
     STEPS  2000
     TIMESTEP     4.9999999999999994E-01
     STEP_START_VAL  1998
     TIME_START_VAL     9.9899999999998238E+02
     ECONS_START_VAL    -1.1023558357480224E+03
     TEMPERATURE     3.0000000000000000E+02
     &THERMOSTAT
       TYPE  GLE
       REGION  MASSIVE
       &GLE
         NDIM  5
         A_SCALE     1.0000000000000000E+00
         A_LIST     1.8595758612559999E+02    2.7263853498399998E-01    1.1526100454610001E+01   -3.6414578262600003E+01 \
             2.3173375816020001E+02
         A_LIST    -2.7809524712060002E-01    8.5951591808710006E-05    7.2189048017650004E-01   -1.9844539343859999E-01 \
             4.2409257583420001E-01
         A_LIST    -1.4825808131210000E+01   -7.2189048017650004E-01    1.3590902121280000E+00    5.1498896280349999E+00 \
            -9.9949268450990001E+00
         A_LIST    -1.0372189126880000E+01    1.9844539343859999E-01   -5.1498896280349999E+00    2.6661910891169999E+01 \
             1.1507715495310000E+01
         A_LIST     2.1801346360420001E+02   -4.2409257583420001E-01    9.9949268450990001E+00   -1.1507715495310000E+01 \
             3.0958394565589998E+02
         &THERMOSTAT_ENERGY
              -1.9654674502939820E-03
              -1.8876453275954086E-03
              -5.8594104283597270E-04
               7.4279291203439785E-03
              -1.2465642664474010E-02
               1.6466044124948697E-03
              -7.1383722863048492E-04
              -6.0462070269675866E-03
               1.7808607419358847E-02
               3.0444455404678907E-03
               1.2774980862044847E-02
               7.4470059527248912E-04
              -7.6064058181726756E-03
              -6.2223527584129908E-03
               2.0655938589210317E-04
              -8.0669330151401167E-03
               1.8121754703156280E-02
              -2.6948057416214077E-03
               7.2509534274886722E-03
              -6.1566255429381890E-03
              -3.0369730239740941E-03
               4.5309846838154566E-03
              -1.0818648592847167E-02
              -4.3000582919758635E-03
               3.2469483931738190E-03
               3.9226010315977873E-03
               3.4483608503251902E-03
               1.2168021689102095E-03
               1.1473510117438492E-02
               2.2695674855385795E-03
               2.5407596863101464E-03
              -3.8893897082001444E-03
               3.0699280439211237E-03
               2.5149050226662070E-03
              -1.3900900426292200E-02
               1.5139141026264501E-02
               2.9293065343890643E-03
              -3.5433295254598592E-03
               1.5097892180231695E-03
               6.6089798301160324E-03
              -5.5144071281554383E-03
              -8.7622972032122930E-03
               9.0912837945731906E-03
               4.5203469553566590E-03
              -1.7777132122756458E-03
               3.2699279003301262E-03
              -9.0393083089954649E-04
               7.0551035738384690E-03
               5.9359462295800174E-03
               1.5781518372283731E-03
              -3.7364927205936352E-03
               2.8963757896548086E-03
              -8.0534513142765177E-03
              -7.0911056380635403E-04
              -5.9293079228091477E-03
               3.9011946127379036E-03
              -3.9364437484403665E-03
              -4.6317776193485006E-03
              -6.4028246925462641E-04
               1.9324124236294277E-02
               2.2477506831712034E-03
              -8.8358183435824113E-03
               1.7261120164539331E-02
              -4.6605228916107039E-03
               4.7661718006144172E-03
               2.3457924923523570E-03
              -9.5111861008523296E-03
               5.3936035008825727E-03
               2.0376893386757338E-02
               1.5702543448050563E-03
              -2.0983453067532844E-03
              -1.4116469102914657E-02
              -1.7554611555310440E-03
               2.4781943833630258E-03
              -3.1207511066617608E-04
              -9.7228931808409757E-03
               2.4446892528674864E-03
               3.9559828711873395E-03
               7.0554227292042989E-03
              -9.1437910435768262E-03
               2.0488633281668542E-02
              -4.2274078709738311E-03
               2.8200244457628957E-03
               1.2257331178544459E-03
              -1.6660310476912243E-03
               9.4788670110145020E-03
               3.1939160487126990E-03
              -7.5759795985632043E-03
               3.2648206001349841E-03
               5.0646132141938507E-04
               3.8006660670189324E-03
              -9.3711369789763448E-03
               1.3029906049957470E-03
              -7.8669236189196738E-03
              -7.7336730041340533E-03
               3.9242009892146729E-03
               1.0346317562261748E-02
               6.6414030260285588E-04
               5.0894611476951530E-03
              -7.0035636479789378E-04
              -1.3459545179912756E-03
              -9.9798256892480279E-03
               4.1940952796621234E-03
              -3.3876256773823100E-03
              -1.0151522246613300E-03
               1.4369075459309336E-02
               8.3451477255308570E-04
              -4.4563135278981696E-03
               2.4608217124151249E-03
              -6.0391186672579247E-03
               2.8688993145428105E-03
               6.3859449179677367E-03
              -3.2699493572807066E-03
              -6.7506025724395060E-03
               8.8796909517816179E-03
               6.0310244458456645E-03
              -1.5590553751722221E-02
               6.0779480885208743E-03
               4.2912274004494122E-03
               7.6572290259200003E-03
               8.7947489654019700E-03
              -4.4126092264852269E-03
              -1.6677816974239399E-03
               5.6130174109503940E-03
              -9.4040973435677595E-03
              -2.1532064295279115E-03
               3.4749199071090336E-03
               8.1290825411491205E-04
              -3.2999448167931704E-03
               5.1437719960069914E-03
              -4.1155027632069508E-03
               5.3727327191907467E-03
              -1.2064158464111619E-02
               6.5129889611175639E-03
               7.9211162613637980E-04
              -3.4677616630627520E-04
              -4.5111314876921400E-03
              -5.8899948971782761E-03
               2.5878343366669073E-03
              -2.5904932643730726E-03
               2.9485952124521774E-03
              -2.8205745902803226E-03
               1.6111256433474257E-02
              -4.9364579804932951E-03
              -6.8445076723061436E-03
              -8.4401399889874747E-04
               6.0139525834020284E-03
               1.0552479570327667E-02
               3.1140643225650794E-03
              -5.0662969170767761E-03
              -1.6912247652429230E-02
               7.5235650800675388E-03
              -4.0393616243598874E-04
              -6.0343287911635698E-03
               1.0064807191052075E-02
              -1.7877201923202726E-03
              -1.3110979646229980E-03
               5.4309979764937564E-03
              -1.9182499462509629E-03
               1.5073953806891234E-03
              -1.0563267353775789E-02
              -8.7576493833424699E-03
              -9.7316069535529823E-04
               1.5342470291583642E-04
               8.1370353985318073E-03
               1.1521143396090410E-02
               2.7871795606001803E-03
              -2.0612011504605010E-02
              -6.5588049048933708E-03
               1.3380852029201964E-02
              -4.2604015940527346E-03
              -3.4472507708837867E-03
               1.8760549817157684E-03
              -5.5868883307665269E-03
              -3.9826517575488928E-03
               1.5461044535425412E-03
              -7.8912631137516513E-03
               2.2887038429764391E-03
               4.1524892914263072E-03
               8.2066611523774133E-03
              -3.2663209830730532E-03
               5.7050848259434703E-04
               6.9602053044348590E-03
              -1.9523786021059815E-02
               1.1404706609138024E-02
               1.4315063044095290E-03
              -4.2699963743194867E-03
              -1.1116753565876111E-03
              -1.9037149159434959E-03
              -4.2834471882709766E-04
               4.0278664947310380E-03
              -1.5014237676344976E-04
              -1.2206758943200339E-02
               8.6464532922563946E-03
               9.6370893728647197E-03
              -8.1228949566830716E-03
              -7.5825793553678938E-03
               7.6859810590273504E-04
              -4.5325242944175628E-03
              -4.6552157164460274E-03
              -1.7387896054320284E-03
              -2.1161258685019266E-03
               1.7029630229403157E-02
              -4.3295274273262678E-03
              -7.2226400120503622E-03
              -7.0557220881279075E-04
              -3.8387528240745308E-03
              -9.8874114110756423E-04
              -1.6842306413309212E-03
              -1.9429657906401446E-04
               1.3274206925406313E-02
              -7.8468410967006321E-03
               1.0768556111298630E-02
              -5.9940194848216765E-03
               5.7278526928333266E-03
              -2.4077044506736487E-03
              -1.5067019280407502E-02
               9.8650109363896069E-03
               3.1422749472607243E-03
              -1.7327323684963682E-02
              -4.1391388388765330E-03
               6.9721003123211767E-04
              -8.9736797420382714E-04
               1.7382216467616285E-02
              -2.7007680079846291E-03
               1.5155733753063614E-03
               2.6081803365022699E-03
               5.8778390406582929E-04
               4.9346207768639272E-03
              -3.5134326821343593E-03
              -1.2285282236627285E-02
              -1.7622205066196489E-03
               1.4200057436645739E-02
              -4.9768246552237159E-03
               4.4113767629706569E-04
               3.5648254921837293E-03
               2.0106999956486931E-04
              -2.7823126449104227E-03
               1.2054357714198754E-02
               7.3540294884263165E-03
              -5.3591612275193327E-03
              -8.1727344923762466E-03
              -5.4287127360396533E-04
              -3.5058842823973307E-03
               3.3236894011151792E-03
               3.5026375418913966E-03
               5.7078168851444518E-03
              -3.8993108289139215E-03
               7.4597892044967959E-04
               2.8176785261235723E-03
               7.0211196094394236E-03
              -1.2140899062918114E-02
              -7.7789265788009675E-03
              -7.1027593049759925E-03
               6.2136061461671643E-03
              -8.4757648187259852E-04
               7.6987273511573218E-03
              -3.9568169805660651E-03
               1.6050733584115174E-02
              -2.1514961938773530E-02
               2.1779471706658091E-02
               1.8835196750454860E-03
               1.8287175838632218E-03
               1.4470219125838285E-04
               4.6650136163945751E-03
              -6.8563462818976946E-03
              -3.5354461484225048E-04
              -5.7225535364242575E-03
               7.3985869452334783E-04
               7.5990154562775841E-03
              -1.9947041676983820E-03
              -4.7464154805559001E-03
              -1.1480469914666655E-03
               1.1324742273385393E-02
               3.8338946562322673E-03
               2.1238247189665554E-03
              -2.8271958441840595E-02
               2.4057439291456560E-02
              -6.4901168724300264E-03
               7.2044787618320795E-03
              -7.4855412070028255E-03
               1.2929338863499728E-03
               8.0203224246003322E-03
              -6.1883113869209260E-03
              -4.0016010900557376E-03
               4.8129967520944717E-03
              -4.3472038616784969E-04
              -1.0589005696222330E-02
              -2.1691368268987854E-03
              -6.9790554136869626E-04
              -2.9706460681535899E-03
               1.4840077015700715E-02
              -1.9478456038099592E-03
              -6.7626409421411788E-03
               1.8773913347784330E-03
               1.1277663485897827E-02
              -1.3134848564169346E-02
              -9.6197220398904035E-04
              -4.7616037414370625E-03
               4.0824636518843220E-04
              -1.0978371801438137E-02
               3.5434107949766924E-03
               7.9330146742159421E-03
               1.0258666722454950E-03
               8.7154118772348899E-03
              -1.1096323961259667E-02
              -2.5616518879133018E-03
              -1.4096432174014804E-03
              -2.2716656620065763E-03
               1.5648901746076228E-02
              -6.8297367673880918E-03
              -6.4605463593489561E-03
              -3.5671122765438858E-03
               1.4569634729556214E-02
               1.4402339459896264E-03
               1.0575173816176814E-02
               2.6262809882776047E-03
               3.3251791484513915E-03
              -7.6095947003715489E-03
               1.2056138294508944E-03
               1.1678784786966538E-02
              -1.4694427241382110E-02
              -1.4772680457989124E-02
               1.6749633752073757E-02
              -7.7192475508489249E-03
               1.0363301652798883E-02
               8.4413494756940680E-04
               4.1517567758165433E-03
              -3.8884049900695808E-03
              -1.0089538516735639E-03
              -1.2420801082745441E-03
              -1.4991700027490203E-02
               6.7437018598708633E-03
              -2.7354717583227719E-03
               5.5372338739533697E-03
               5.1866978965909817E-03
               1.3476785148099416E-02
               2.0193839749870759E-03
              -1.2642255252384287E-02
               1.2128218942928478E-02
               3.5071384674533659E-03
              -8.1463143743434469E-03
               3.1270051217538713E-03
              -7.0735731107091386E-03
              -1.0723004234851265E-03
              -5.4470301480222119E-03
               6.6277100873962419E-04
               8.3444607903502242E-04
               9.4619855013844314E-03
               2.4331974726686471E-03
               8.8846066238836626E-04
               4.3824634573666954E-03
              -7.3634951187494481E-03
              -2.8113377939125283E-03
              -1.5331697886932154E-02
               1.3529275012678341E-02
               3.6706548149124650E-03
              -8.4942348556648201E-03
              -1.3089704302974074E-02
               1.5081307113224413E-02
               2.5428311671744342E-03
              -4.0461998540470322E-03
              -1.1599048723867366E-02
              -5.0650387401470955E-03
              -3.5213976046877546E-03
               1.7214672370289893E-02
               1.1260985448768255E-02
              -5.4833728689550167E-03
              -1.1545295165480361E-02
              -3.8928470953939255E-03
               2.4730263815158425E-03
              -2.6073310386654940E-03
               3.8615904423187561E-03
               8.6720008414020201E-03
              -5.0261734268031849E-03
              -1.2412433347045891E-03
               5.6113329419909186E-03
              -8.8142972921761761E-03
              -2.8549567130265190E-03
               6.1813133677250682E-03
               2.1535523782438021E-03
              -1.7430095209109433E-03
               1.9724317346586299E-02
              -6.1919983033390958E-03
              -2.1777294937023139E-02
               8.1509689547710103E-03
               2.0839909514860167E-03
              -1.1180121420529287E-03
              -4.9408525171160660E-03
              -4.6501376456682783E-04
              -9.4486262379586648E-03
               1.8743129510690130E-02
              -2.2840744769821748E-03
              -7.0179219337600778E-03
              -2.4055874444013883E-03
               1.2620597978632939E-03
              -7.0642983598536444E-03
               8.5136481267262185E-03
               5.2330246648137650E-03
              -2.8268579279791820E-02
               1.2606068696344529E-02
               7.1103553058221415E-03
              -7.6414357781280249E-03
               6.4637013913392861E-03
               2.1273619717234502E-02
              -4.1953228545980517E-04
               6.5595706975966964E-03
               4.5067855857919342E-03
              -4.6526837384183695E-04
               3.0264764266274419E-03
               8.6154023826058720E-04
               1.9419599908197280E-03
              -1.3344532823713130E-02
               6.2331102538956918E-03
              -6.6829303032814539E-03
              -2.2227944997933589E-04
               2.4769011273894958E-03
              -2.5546045420576390E-03
               3.2541981543187656E-04
               4.3870450266276706E-03
               1.4720748096433151E-04
              -3.0699192174917008E-03
               2.2889455626892404E-03
               6.9818675472448218E-04
               2.1839351530419495E-03
               1.5562873343984319E-03
              -1.0193456530942726E-02
               6.3792457372818809E-03
              -6.7850579248873973E-03
               4.2178195197400091E-03
               9.4304983053934508E-03
              -9.6593600867507599E-03
              -5.1392165566036610E-03
              -6.9207722149761250E-03
               6.7565703893459998E-03
              -1.2216850384641272E-02
              -5.4734803628397211E-03
               1.0768779375272272E-02
              -7.4604142817418341E-03
               8.9717292225464616E-03
              -9.2670476952300528E-03
              -1.4737938682469991E-02
              -1.9431507208729894E-03
               5.5382796205290527E-03
              -9.8481097505672688E-03
              -7.3369320179329693E-03
               4.3337468145221176E-03
               7.1011750283403782E-03
               1.2408968274170897E-02
              -6.7623306595397436E-03
              -5.0824618884018555E-03
              -6.3266964311787860E-03
               2.8648192733328097E-03
               7.5525124630212758E-03
              -1.1881112588304122E-02
              -8.1024365654813607E-03
               2.1897999875550803E-02
               4.1210261328086346E-03
              -1.5428858821497141E-02
              -6.2345772500017934E-03
               4.5396185909179383E-03
              -3.3133043635965886E-03
               4.4929317408340750E-03
              -1.3419272404793624E-04
               5.6105879238297924E-05
               7.7707461326836274E-03
              -1.1507193514337145E-02
               3.4696133728912152E-03
              -4.0210184243367510E-03
               1.2570029809808102E-02
               1.9462363679608439E-03
               7.0612592234472671E-03
              -1.3717930462398234E-03
              -9.4776280322176232E-04
              -6.6433403815194464E-03
               7.6305869719403945E-03
               8.0010334682624525E-03
               2.9089782480506707E-03
              -4.0477130653409302E-03
               7.0063216596269028E-04
              -5.9633466696791398E-03
               5.1047647690777983E-03
               1.2922386086247515E-03
               9.9427764497331764E-03
              -7.2603320858877721E-03
              -2.4849797286637474E-03
              -3.3741144542768784E-03
              -2.0543660629279903E-03
              -2.8731331712737911E-03
              -1.5346270218815354E-03
              -1.6479465248250523E-03
               3.4366074676557817E-03
               8.1603307208471254E-03
               5.0532795738428594E-03
              -1.3275498504412812E-02
               1.5104443104476013E-03
               1.2885674959491253E-03
               1.7380554443621546E-03
               1.4158644415753112E-03
               7.4010985562911287E-03
               8.9786323073484480E-04
               2.2919441227267773E-03
              -1.0559891165338918E-02
              -6.7292522228270335E-03
               4.9090654359614924E-03
              -9.7009448295222594E-03
               1.9217426057158075E-03
               8.0913323747057355E-04
              -2.0269729665426768E-03
               1.1845707551795524E-03
              -1.4520907960467180E-03
               8.0998608991889182E-03
              -2.7726510592920063E-03
              -2.6406507142743823E-03
               1.3780484391206591E-03
              -1.1202603151519999E-03
              -6.3949886523444067E-03
              -4.5342557240705674E-03
               7.6656797721829772E-03
               5.1935972220421168E-03
               3.4892321275272332E-04
              -1.1556381430898224E-02
              -1.3070440942325410E-02
               1.5299034036643266E-02
               3.7314613060143386E-03
               6.0772723147205273E-03
              -3.8777427425301185E-03
              -1.0916056441920122E-02
               6.0899252129122845E-03
              -1.8611845220487990E-03
              -1.3476582050898642E-02
              -3.5362482925406754E-03
              -8.9184261387192949E-03
               1.8693310896413437E-03
              -1.7874309425079432E-03
               1.1491671842882285E-02
               5.1528177553776446E-03
              -7.8095207649585968E-04
              -8.2543388049524102E-03
              -6.1760037403436798E-04
               8.5648885111890439E-04
               2.0991479461809448E-03
               2.0391200624339839E-03
               5.0796394309033819E-03
              -5.3059482251852121E-03
               8.4577784213652214E-03
               7.4752290734421828E-03
               5.9092372181058302E-04
              -2.0458920872764674E-03
               1.4745688580965522E-04
              -1.4221385141946158E-03
              -3.4666391463146126E-04
               5.6392459253081853E-03
               1.4023903599929043E-02
              -1.1711392747824229E-02
              -1.1917409736128844E-02
              -5.0829202142462747E-03
               1.1276022799767686E-02
              -2.2815220552071455E-03
               2.1773819276750092E-03
              -7.8129685816882952E-04
              -8.5410911257698639E-03
               1.1499681809892444E-02
              -2.2891950278760894E-03
              -3.6086386083110855E-03
               1.3063004518390054E-02
               6.2523657541105155E-03
               1.3869494349297404E-04
               7.3249926822325801E-03
              -5.7502895993807234E-03
              -1.1938043586228058E-02
               3.7407524112690418E-03
              -2.5410023388715130E-03
               1.6612650102505832E-03
              -2.9869680119958804E-03
              -2.8521647755069511E-03
         &END THERMOSTAT_ENERGY
         &RNG_INIT
Wiener process for Thermostat # 1        1 F T T  -1.5601997779545997E+00        4027757407.0        1559045809.0        3403552754.0        1703120254.0         453778739.0        2861026355.0             12345.0             12345.0             12345.0             12345.0             12345.0             12345.0             12345.0             12345.0             12345.0             12345.0             12345.0             12345.0
Wiener process for Thermostat # 2        1 F T T  -4.0112764818655514E-02        3838101567.0        1430396723.0        1556923290.0        2889325561.0         607612135.0        3761282217.0        3692455944.0        1366884236.0        2968912127.0         335948734.0        4161675175.0         475798818.0        3692455944.0        1366884236.0        2968912127.0         335948734.0        4161675175.0         475798818.0
Wiener process for Thermostat # 3        1 F T T  -2.7485675335982579E-01         482699311.0        2506409672.0        1202736307.0        1073196783.0        1141297417.0        2856513754.0        1015873554.0        1310354410.0        2249465273.0         994084013.0        2912484720.0        3876682925.0        1015873554.0        1310354410.0        2249465273.0         994084013.0        2912484720.0        3876682925.0
Wiener process for Thermostat # 4        1 F T T  -9.8957058820594379E-01        3129827523.0        3549124345.0        1353678049.0        1344233659.0        2578763699.0        1106953444.0        2338701263.0        1119171942.0        2570676563.0         317077452.0        3194180850.0         618832124.0        2338701263.0        1119171942.0        2570676563.0         317077452.0        3194180850.0         618832124.0
Wiener process for Thermostat # 5        1 F T T   8.1743834600370391E-01         587879607.0         702838090.0         820286405.0        1159088393.0        1840431053.0        2379049004.0        1597262096.0        3906379055.0        3312112953.0        1016013135.0        4099474108.0         275305423.0        1597262096.0        3906379055.0        3312112953.0        1016013135.0        4099474108.0         275305423.0
Wiener process for Thermostat # 6        1 F T T  -4.6635220676026440E-01        1255338812.0        2941627828.0        2767710176.0        1701464963.0        2824905014.0        2257709657.0          97147054.0        3131372450.0         829345164.0        3691032523.0        3006063034.0        4259826321.0          97147054.0        3131372450.0         829345164.0        3691032523.0        3006063034.0        4259826321.0
Wiener process for Thermostat # 7        1 F T T  -2.7221417990508723E-01        2928923925.0        1475590831.0        3028549759.0        1729569924.0         123262326.0        1965188850.0         796079799.0        2105258207.0         955365076.0        2923159030.0        4116632677.0        3067683584.0         796079799.0        2105258207.0         955365076.0        2923159030.0        4116632677.0        3067683584.0
Wiener process for Thermostat # 8        1 F T T  -1.3371509559371584E+00        3293786404.0        2324351260.0        4224364702.0        1341956089.0         912321799.0        2697559406.0        3281794178.0        2616230133.0        1457051261.0        2762791137.0        2480527362.0        2282316169.0        3281794178.0        2616230133.0        1457051261.0        2762791137.0        2480527362.0        2282316169.0
Wiener process for Thermostat # 9        1 F T T  -8.7225140957356684E-01         657961678.0        1513147170.0        2219186603.0        4111646695.0         616753226.0        2747528653.0        3777646647.0        1837464056.0        4204654757.0         664239048.0        4190510072.0        2959195122.0        3777646647.0        1837464056.0        4204654757.0         664239048.0        4190510072.0        2959195122.0
Wiener process for Thermostat # 10       1 F T T  -6.2889449580622436E-01          96284293.0        2446379684.0        3801610533.0        2961863039.0        1877110468.0         129512113.0        4215590817.0        3862461878.0        1087200967.0        1544910132.0         936383720.0        1611370123.0        4215590817.0        3862461878.0        1087200967.0        1544910132.0         936383720.0        1611370123.0
Wiener process for Thermostat # 11       1 F T T   5.7191327297384098E-01         909895394.0        1862319182.0        2400367466.0        1201802882.0        2818881371.0          83822050.0        1683636369.0         362165168.0         814316280.0         869382050.0         980203903.0        2062101717.0        1683636369.0         362165168.0         814316280.0         869382050.0         980203903.0        2062101717.0
Wiener process for Thermostat # 12       1 F T T  -2.0098512161557830E-01        4281566709.0        2729512869.0         275332126.0         437149450.0        1041778670.0        1778805263.0         272317999.0         166758548.0         310112982.0         201045826.0        1680231254.0         118290799.0         272317999.0         166758548.0         310112982.0         201045826.0        1680231254.0         118290799.0
Wiener process for Thermostat # 13       1 F T T   9.4560796151122029E-01        3557498645.0        2583014714.0        2425630516.0         920535172.0        3770643442.0         978988578.0        2245755202.0        1652682525.0        2865544364.0         721509566.0         209733568.0         592362218.0        2245755202.0        1652682525.0        2865544364.0         721509566.0         209733568.0         592362218.0