 # Version information for this restart file 
 # current date 2023-12-06 13:39:31.799
 # current working dir /scratch/work/courses/CHEM-GA-2671-2023fa/students/tje3676/comp-lab-class/Week12/Runs/Proton
 # Program compiled at                              Sat Dec 12 18:27:15 EST 2020
 # Program compiled on                                         cs001.nyu.cluster
 # Program compiled for                                                nyu-intel
 # Source code revision number                                       git:8c64c6e
 &GLOBAL
   PRINT_LEVEL  LOW
   PROJECT_NAME proton_aimd_1ps_every0.5fs
   RUN_TYPE  MD
   WALLTIME 21600
 &END GLOBAL
 &MOTION
   &GEO_OPT
     OPTIMIZER  BFGS
     MAX_ITER  100
     MAX_DR     3.0000000000000001E-03
     &BFGS
     &END BFGS
   &END GEO_OPT
   &MD
     ENSEMBLE  NVT
     STEPS  2000
     TIMESTEP     4.9999999999999994E-01
     STEP_START_VAL  1500
     TIME_START_VAL     7.5000000000000762E+02
     ECONS_START_VAL    -1.1027786089125343E+03
     TEMPERATURE     3.0000000000000000E+02
     &THERMOSTAT
       TYPE  GLE
       REGION  MASSIVE
       &GLE
         NDIM  5
         A_SCALE     1.0000000000000000E+00
         A_LIST     1.8595758612559999E+02    2.7263853498399998E-01    1.1526100454610001E+01   -3.6414578262600003E+01 \
             2.3173375816020001E+02
         A_LIST    -2.7809524712060002E-01    8.5951591808710006E-05    7.2189048017650004E-01   -1.9844539343859999E-01 \
             4.2409257583420001E-01
         A_LIST    -1.4825808131210000E+01   -7.2189048017650004E-01    1.3590902121280000E+00    5.1498896280349999E+00 \
            -9.9949268450990001E+00
         A_LIST    -1.0372189126880000E+01    1.9844539343859999E-01   -5.1498896280349999E+00    2.6661910891169999E+01 \
             1.1507715495310000E+01
         A_LIST     2.1801346360420001E+02   -4.2409257583420001E-01    9.9949268450990001E+00   -1.1507715495310000E+01 \
             3.0958394565589998E+02
         &THERMOSTAT_ENERGY
               6.7426953614716152E-04
              -7.3735862645024717E-04
               2.9137844721198046E-04
               5.6869635144562074E-03
              -1.8312534260783407E-02
               1.2580670897623532E-03
              -4.2547951655126084E-03
              -8.0918807896505299E-04
               5.6172489131697274E-03
               4.1059822075360042E-03
               6.1965479355244428E-03
              -3.6334161135114893E-03
               1.4792518270209027E-03
              -9.6617635204355127E-03
               8.8891945225699018E-03
              -2.5244871667632640E-03
               2.5442864932722978E-03
              -6.8781666874128747E-03
               3.9931638489458660E-03
               1.8826671534146844E-03
               5.0341995275209614E-03
               2.0037249016543503E-03
              -1.9407595187849738E-03
              -4.2141574619669105E-03
              -6.3761154407183124E-03
              -6.2200304162210833E-03
              -1.8270362351127225E-04
              -1.8522631592897838E-04
               1.7133167087181019E-03
               4.5116172968247548E-03
              -1.0793780959096073E-02
              -4.1906834707838516E-04
               1.2368733038346453E-02
               1.9641123925319146E-03
              -8.1651122351122148E-03
               1.5195875354154535E-02
              -1.6375160012099927E-03
              -2.9067564578848315E-03
               8.9398088939413750E-04
              -2.8870337395363464E-03
               6.8254922383397731E-03
              -5.5524685375274658E-03
               6.0544140128852902E-03
               6.7715869035732124E-03
              -3.5427210939003619E-03
               2.8388350558049024E-03
              -4.8186704960997400E-03
               7.2849061834989780E-04
               2.1929809662165280E-03
               7.3998898438978316E-03
              -2.9990991361870927E-03
              -2.2132766620237714E-03
              -5.7274162164308116E-03
              -3.9558623189555574E-03
              -7.8160976388685147E-03
               2.7421994777226278E-03
               7.8556428029721620E-04
              -6.9751131383664382E-05
               5.0864120690240818E-03
              -1.1728789988359001E-03
              -5.9174631983829043E-03
              -2.1060165193468742E-03
               1.4574357940329625E-02
              -3.0139078225156594E-03
               7.6732727128616786E-03
               5.1085254173455132E-03
              -1.0129145413390387E-03
               3.5297280299488106E-03
               4.3168431776600923E-03
              -4.4727292763449061E-03
              -4.7298848283517077E-03
              -2.9138583833815479E-03
              -2.7522148329105866E-03
              -8.7400215926767004E-04
              -1.9627329794936589E-03
              -6.4669975828168169E-03
               5.7543400203779807E-03
              -5.4990958140489375E-04
               5.8439530140370994E-03
               1.2782144147958667E-03
               5.1175866451180644E-03
              -1.5713309067366735E-03
               6.4241400005300101E-04
              -2.1728553934997116E-03
               5.4913583267076783E-03
               7.1585143844959355E-03
              -5.5293878498928048E-03
               2.1033384238010096E-03
               4.7085650657745625E-03
              -4.3830998744334281E-03
               7.1063059858484491E-03
              -7.2082318967752303E-03
               2.2289402733512028E-03
              -6.0064368976571686E-04
              -5.1710265698657939E-03
               9.1141672537114471E-03
               8.2026267181029857E-04
               4.2988236618988194E-04
               3.8844125474935855E-03
               7.4589285150732099E-03
              -2.1110431455944700E-03
              -4.6478227056807311E-03
               1.0771821758981156E-03
               4.8302032975566529E-03
              -8.3753423235231243E-04
               5.1732001210770479E-03
               6.3391897290472144E-03
              -5.0426736759004477E-03
               5.9154272583730565E-03
               3.1171613614729170E-04
              -1.7212193007389162E-03
              -2.2841211017186574E-03
               4.0104283043362393E-03
               8.3369769459247858E-03
               2.1674531794461059E-04
               2.3162861192828339E-03
               4.7608730735005274E-03
               2.4671732964140500E-03
               1.7828455955346066E-03
              -1.7219700939181085E-03
              -7.9221030843908673E-03
               4.1925000671965557E-03
               1.0587891473490978E-02
              -4.8911211672803866E-03
              -4.8130144373385551E-03
              -7.3915658033169625E-03
               5.7162006994809613E-03
              -4.4201299959239484E-03
               9.0787148232544419E-03
              -8.2899998355855549E-03
              -7.3835246382491166E-03
               1.1945296086144872E-02
               1.1744351556506626E-03
               5.9675483711155363E-03
              -3.3510924857829472E-03
               4.7182589023911509E-03
               1.2872543383169970E-04
              -9.2122308733224890E-03
               2.0987224727465970E-03
              -7.8291563068380639E-03
               4.9144961219906979E-03
               5.9411824899572533E-04
               4.8687079316258510E-03
               4.5958021558617640E-03
              -4.7088357522705616E-03
              -2.0485789373737833E-03
               1.2198482818676136E-02
               9.0995720386315005E-05
               5.1380833895479216E-03
               3.2543677664239054E-03
              -1.5690982127790576E-02
               8.3329757819664285E-03
              -7.5499643871334155E-04
              -2.2796898709475924E-03
               3.7680766379529370E-03
               1.0239975016817001E-03
               5.8693765322608855E-03
              -5.1860514299912706E-03
              -1.4872095984573242E-03
               3.6014971689587770E-03
               6.4811766076033105E-03
              -3.7586621324578505E-03
              -6.6863958393926825E-03
               1.2301410748410502E-03
               1.0112924633346938E-02
               5.7894382330750246E-03
               1.1062974407218909E-02
              -1.4013613907119190E-02
              -3.3291207307995633E-03
               3.6591885056500321E-03
               4.3991736847387554E-03
              -5.8722087220638064E-04
              -4.6949824307284636E-03
              -4.8718322992468838E-03
               2.9158596778099372E-02
              -8.3272120273976229E-03
               9.7325808833818341E-03
              -1.7642299199889717E-03
               6.4153698766761863E-03
               3.5888894939219316E-03
               6.9006180918419887E-03
              -6.3061364863134153E-03
               3.6839765162185428E-02
              -5.7172451472275888E-03
              -1.0390571775849609E-05
               7.7297029101517061E-04
               7.2654295592140964E-03
               5.3443620323909502E-03
              -8.7577215527831175E-03
               1.3370298191148747E-03
              -4.2688273573294952E-03
               5.4876695290964478E-03
               1.3910652131061919E-03
              -2.4021378200317980E-03
               3.1605312701941985E-03
               9.1023248037117067E-03
              -6.8800567807757859E-03
              -8.5586533056998277E-03
              -1.4616981514991739E-03
               1.9697879509419361E-03
               9.9915377551465157E-05
               2.1185030857887518E-03
               4.4117105542960445E-04
               5.2591003012814599E-03
              -6.2837231226495734E-03
              -1.0277087863117772E-02
               6.6072890665111565E-03
               5.4297728208962115E-03
              -1.5566529797262385E-03
               3.2360469286599443E-03
              -2.5367688505792837E-03
               4.6480168128252170E-04
               4.2988611303839972E-03
               2.1131630749311407E-03
              -6.3839651611399834E-03
               5.6597857699757330E-03
              -1.1509351424601889E-02
               1.0997033275056738E-02
               4.2496097690739735E-03
               3.1703144078249973E-03
               1.2785705734234829E-03
              -3.0340422546174515E-03
              -1.2393107875076640E-02
               6.0760691717543502E-03
               4.9804291270749640E-03
              -5.6346556846914456E-03
              -3.1231290987326506E-03
               6.2733363557200827E-03
               1.0558708550735152E-03
              -3.3018032797702342E-03
              -3.9662707571343787E-03
               4.2568761049468599E-03
               1.0367712436381238E-02
              -2.1367997677117384E-03
              -5.5978128495374566E-03
              -6.2311721796643616E-03
               2.9657198429891068E-03
               2.1050540167417313E-04
              -2.4925773679042866E-03
              -8.0346331629568108E-04
               2.2097700172678146E-03
               6.9272122875647978E-03
               2.3311894880630132E-03
              -1.8142021092138626E-03
              -4.7613632219445576E-03
              -1.3522854123107653E-03
              -2.1425482178758634E-03
              -4.3437427474107642E-04
              -5.3509297216782579E-03
              -3.7663212768653401E-03
               5.6430039964536945E-03
              -3.3204667487689364E-03
              -4.4448517272100696E-03
              -9.2554019029357885E-03
               5.0874902664208351E-03
              -2.9773418796809913E-03
              -1.4471107564202176E-04
              -3.1475522265063485E-03
              -8.6605038714458703E-03
              -2.6256189128544293E-04
               1.0979429466937534E-02
               5.7356096494694583E-03
               8.5011224158842939E-03
              -4.2230268473159539E-03
               3.1905655582118888E-03
              -6.6245099112671223E-03
               2.9940529785770149E-04
              -1.4803302157531803E-03
              -2.4701032824028862E-03
               5.5337564415577746E-03
               2.9540044895281525E-03
              -1.0022380479342081E-02
               8.6724554389721008E-03
               4.9645407327883577E-03
               1.2994200421419572E-03
               1.8309989414353736E-03
              -1.8622352689753749E-02
               1.1524338646105605E-02
               4.4287445882376392E-03
               1.5517676366568751E-03
              -7.5907494426075400E-03
              -4.2348894742961973E-03
              -1.3746210703863865E-03
               8.9905432518878579E-03
              -1.5053734212537202E-03
              -7.9413713271299434E-04
               5.0976724021916230E-03
              -1.7940875116677476E-03
              -1.2421496361248559E-02
               4.8631509565897502E-03
               1.3731792009308181E-02
              -9.4411553530245062E-04
              -4.7255942551270268E-03
              -4.8957801599652908E-03
               5.4290178703926299E-03
               7.6784285243423735E-03
              -5.8776858680786685E-03
               1.8249793639560676E-02
               4.4999377661440985E-03
              -1.6938552044572754E-02
               9.8966714909110823E-04
              -1.2181655542098054E-03
               4.8724882099956453E-03
               1.4465940989262183E-02
               1.7472317960707088E-03
              -3.1980421200264093E-03
               2.5084204076959919E-03
               4.6925643720047670E-03
               1.5905801209143138E-03
               8.1654906561544859E-03
              -1.0080788103390334E-03
              -3.2193506213085529E-03
               7.1806788031726363E-03
              -1.2538858235898540E-03
              -4.2017935300955990E-03
               4.2812224535643132E-04
              -3.1198277620108393E-03
              -1.8649623590800007E-03
              -1.0421698028146638E-02
              -5.8481121401303760E-03
               1.7453363758403160E-03
              -1.5419682934344086E-03
               4.5658126451246801E-03
               3.5519658666721870E-03
              -4.9176300334137467E-03
               1.3871721736174597E-02
               2.0591293226906947E-03
              -8.6061104447343910E-06
               1.8193880122102093E-04
               5.9066073907688759E-03
              -9.7930589862313278E-03
               2.8478100900919639E-03
               2.4896920917471116E-03
               2.7072150724494204E-03
               2.0146998404233893E-03
              -4.0652602363719691E-03
               3.0920351754653765E-03
               2.8142768172837937E-03
               3.2131875986964238E-03
               2.2576912923619689E-03
              -1.3463874427550770E-02
              -3.4504148423915148E-03
               5.9851794730331025E-03
               2.3367255844606314E-03
               6.2728122879022741E-03
               9.5678331635994998E-03
               4.8959727987631773E-03
              -9.2400494481677548E-03
               1.4270604928117570E-02
              -3.1726595759673432E-03
              -9.3234961553499158E-03
               3.4104242877455700E-03
              -1.2929407297053058E-02
               4.2149273247384933E-03
              -1.5956569969429106E-03
              -5.1056369553399601E-03
               3.0229198746129222E-03
              -5.6475246797594667E-03
              -4.3027885054389052E-03
              -5.8148787255460754E-03
              -1.3033365736901976E-03
               1.1488822620647503E-03
               1.2135340985221158E-02
               5.1089672278286967E-03
              -5.5655967480209541E-03
               1.7361449238680142E-03
               1.7068456520285383E-02
               1.9921427059355879E-03
              -1.6453255190347932E-02
              -6.2064590748742909E-03
               3.4624585461836725E-04
               2.9102160077573809E-03
              -2.8898835250971196E-04
              -2.8274215578269813E-03
              -5.1538878303526692E-04
               3.7434574926438033E-03
              -1.8343861687132267E-02
              -1.0767402063396556E-02
               6.0065135778845785E-03
               7.2812848328575701E-03
               2.8542295281625933E-03
               7.4142905140725723E-03
              -6.3940168143119319E-03
              -3.1761511541642897E-03
              -1.9733639093106221E-02
               6.2950243336456395E-04
               7.1979820083744248E-03
               5.3369723435843369E-03
               2.1989181094575630E-03
               4.1870246590509863E-05
              -4.6651619390629543E-03
               6.7370875908372343E-03
               6.6442515365147464E-04
              -1.4003711607390318E-03
               8.5067918172554227E-03
              -3.6825569786610728E-03
              -2.3301152117578428E-03
               1.3603186397715002E-03
              -1.8447179711461466E-03
              -2.3204644425697100E-03
              -2.5448955143950900E-03
               9.7366616919635843E-03
              -7.0965913156391227E-03
               5.1363281795854232E-05
              -2.0025197933019254E-03
               6.5114894698738222E-04
              -5.0659738626043730E-03
               2.7398673707819312E-04
              -1.9803405267679900E-03
               4.6597599356457131E-03
               2.6883168720060000E-03
              -3.4177554072542422E-03
              -9.9767444001777709E-05
              -3.7509976340740331E-03
               1.1622644805961517E-03
               1.6446640279354119E-03
               3.8539793919858171E-03
               2.0638470402663733E-03
              -1.4941532257133484E-04
              -7.6224287080394539E-05
               2.3548422019106612E-04
               2.2075529376450508E-03
              -9.6754388295969718E-04
              -8.7436316916927811E-03
               8.5705802647281209E-03
              -2.0404878834031975E-03
               1.6073994180410243E-03
              -4.8213651506245929E-03
               8.9255009145874377E-04
              -4.4406433583690699E-04
              -2.4568850528038734E-04
              -7.3861331520798752E-03
              -1.7109876668623316E-02
               8.1771817797244503E-03
               1.3041039592827337E-02
               4.6380939837409388E-03
              -3.9707766601820927E-03
              -2.6320274811309297E-03
              -2.2083710498836751E-03
              -3.1770827615882108E-03
               1.0164468432520125E-02
               3.1975163036908915E-03
              -1.9660457337386606E-03
               3.3681620753234507E-03
               1.8650033675654410E-03
               1.9693413158723494E-03
               8.3045062641414948E-03
               1.1448526377846074E-02
               4.6655600963160368E-03
              -1.5287137603024258E-02
              -3.6459538080013676E-03
              -5.6592099898619356E-03
               3.1460974140036865E-04
              -2.6978079315446049E-03
              -6.8428545451442235E-05
              -4.5117739518761727E-03
              -1.4697573732889380E-02
              -1.3853017379856761E-02
               5.8756211385541024E-03
               2.1743574641134109E-03
               1.6533137015146932E-02
               5.5574952491291947E-03
              -4.1550898997617025E-03
               1.5932985189988835E-03
               5.5635518763454050E-03
              -4.0485411394272533E-04
              -1.1968964089084861E-02
               4.8416920022092627E-04
               9.3973411575004485E-03
              -1.8689922028353404E-03
              -6.1848524824586661E-03
              -2.5926425534746039E-03
              -4.4069499174953926E-04
              -1.3464256415128395E-05
              -7.9780518702041500E-03
               2.5820401369430501E-03
               6.6525245302790075E-04
               7.6246844140025714E-04
              -1.5235001357398895E-03
               1.7548512786130586E-03
               1.2199159571249906E-03
              -2.0431305669720129E-03
               5.9151284293616256E-03
               4.0738896636506377E-03
              -1.6663912961366850E-03
              -2.1107332603531176E-03
              -2.0514442407425339E-03
               7.1251179807321389E-05
               5.3366671883463487E-03
              -4.1954856709088863E-03
               5.8415942997996871E-03
              -9.0762760370617158E-04
               1.1558291188825948E-02
              -3.3461604858821409E-03
              -5.0532164300190457E-03
              -4.2205970803189542E-03
               1.7813367934765229E-03
              -1.3737083135309737E-03
               6.8813913531544013E-03
               4.3967494540545771E-03
               1.3682222454819803E-03
               6.7403487248452300E-03
              -1.0701611999878055E-02
               1.1549913566632482E-02
              -2.2336522994958865E-03
              -9.4559214075937651E-03
              -7.3826107766602547E-03
               3.9262868804576306E-03
               1.0092367543515111E-02
               3.6639737172678667E-03
              -8.4764527778910623E-04
               3.7561804513441409E-03
              -3.0047027045170078E-03
              -1.3297512306261269E-02
               1.6092112877169305E-02
              -1.6358395930919062E-02
              -4.8922971936779629E-03
               4.6004355115968742E-03
               4.9091376581036927E-04
               9.2162023144440970E-04
              -1.4002026239245237E-02
               2.0001062326316446E-03
               1.0467661576633792E-02
              -2.7108038909591150E-03
               1.5197019655908075E-04
               7.0715871877866771E-04
              -3.9791993433318379E-03
              -8.4073006038754559E-04
               2.9091515054384121E-03
               1.8401988190620182E-05
               3.3014877328432037E-03
               7.6716511491899337E-03
              -1.0942851508956219E-02
              -2.8696725686838016E-03
               1.1702494049556000E-03
               6.1802514090650794E-04
               3.9504300574618270E-04
               1.5734021952845915E-03
               2.3598982909298571E-04
               2.5489253018574506E-03
               1.7642535873204567E-03
              -3.2781397502920999E-03
              -4.6460531894890189E-03
               1.2096561477415214E-03
               2.3922339502527677E-03
              -4.6636364875984413E-03
               5.7128157876199280E-03
              -5.0026989297582000E-03
               8.8043702363622203E-03
               1.3963154792643892E-03
              -6.2526456016075236E-03
              -1.8038017374187511E-03
              -9.1612398454769101E-04
              -4.2052394022558887E-03
               1.0715518371808255E-03
              -1.2894950668978793E-03
              -5.6181803038371763E-04
              -3.4773341057532463E-03
               1.3330321235067593E-02
              -4.6038017539483406E-03
               2.9903233155366051E-03
               5.6424914715025726E-03
              -1.4270824762508856E-03
              -2.0024849399198864E-03
               2.5604052872989257E-04
              -4.5030701663408296E-03
              -1.6851356200153253E-03
               5.9548382383574144E-04
               4.1506960881725541E-03
              -2.6458574619059902E-03
              -1.6984114164702144E-03
              -8.3744321806367638E-04
               3.2663207264278281E-03
              -1.0165016808440159E-02
               2.3656174305831811E-03
               7.2586161711125476E-03
               1.4622905685099783E-02
               6.1619952128582163E-03
              -6.4873102118839319E-03
         &END THERMOSTAT_ENERGY
         &RNG_INIT
Wiener process for Thermostat # 1        1 F T T   1.0570193072987602E-01        2554248455.0        3733268398.0        2096963647.0         915983833.0        1292997779.0         989563289.0             12345.0             12345.0             12345.0             12345.0             12345.0             12345.0             12345.0             12345.0             12345.0             12345.0             12345.0             12345.0
Wiener process for Thermostat # 2        1 F T T  -5.0729818522276993E-01         187792199.0        1332764939.0        1272087322.0         282682701.0         988697858.0        4086000388.0        3692455944.0        1366884236.0        2968912127.0         335948734.0        4161675175.0         475798818.0        3692455944.0        1366884236.0        2968912127.0         335948734.0        4161675175.0         475798818.0
Wiener process for Thermostat # 3        1 F T T   8.9774137220556466E-02        3755061031.0        1753083868.0        1351179932.0         343881147.0        3312142877.0        1244557929.0        1015873554.0        1310354410.0        2249465273.0         994084013.0        2912484720.0        3876682925.0        1015873554.0        1310354410.0        2249465273.0         994084013.0        2912484720.0        3876682925.0
Wiener process for Thermostat # 4        1 F T T   2.1447125495896904E-01        2430503636.0         902227617.0        3039217662.0         205693714.0        2375800914.0        4220709598.0        2338701263.0        1119171942.0        2570676563.0         317077452.0        3194180850.0         618832124.0        2338701263.0        1119171942.0        2570676563.0         317077452.0        3194180850.0         618832124.0
Wiener process for Thermostat # 5        1 F T T  -7.4974817695318574E-01        3949927612.0        4293465109.0         224208328.0         677588237.0        2173092809.0        2514687022.0        1597262096.0        3906379055.0        3312112953.0        1016013135.0        4099474108.0         275305423.0        1597262096.0        3906379055.0        3312112953.0        1016013135.0        4099474108.0         275305423.0
Wiener process for Thermostat # 6        1 F T T  -2.3195632299180402E+00        4147399821.0         968438491.0         174961265.0         382156541.0        3672303660.0        2385050302.0          97147054.0        3131372450.0         829345164.0        3691032523.0        3006063034.0        4259826321.0          97147054.0        3131372450.0         829345164.0        3691032523.0        3006063034.0        4259826321.0
Wiener process for Thermostat # 7        1 F T T  -8.3038096976097500E-03        3725962017.0        3124905816.0        1692649901.0        3685368087.0         990134651.0        3321809881.0         796079799.0        2105258207.0         955365076.0        2923159030.0        4116632677.0        3067683584.0         796079799.0        2105258207.0         955365076.0        2923159030.0        4116632677.0        3067683584.0
Wiener process for Thermostat # 8        1 F T T   7.2955713326517235E-01        1426374835.0        1022225665.0        3431852557.0        2945126969.0        1347790872.0        2047858768.0        3281794178.0        2616230133.0        1457051261.0        2762791137.0        2480527362.0        2282316169.0        3281794178.0        2616230133.0        1457051261.0        2762791137.0        2480527362.0        2282316169.0
Wiener process for Thermostat # 9        1 F T T  -8.3876742673612970E-01        3633457436.0         863053678.0         665967915.0         928783000.0        4027924725.0        3556250224.0        3777646647.0        1837464056.0        4204654757.0         664239048.0        4190510072.0        2959195122.0        3777646647.0        1837464056.0        4204654757.0         664239048.0        4190510072.0        2959195122.0
Wiener process for Thermostat # 10       1 F T T  -6.7138423863751628E-01        3282585865.0         909372753.0         488063086.0        2442536289.0         174422437.0         477575080.0        4215590817.0        3862461878.0        1087200967.0        1544910132.0         936383720.0        1611370123.0        4215590817.0        3862461878.0        1087200967.0        1544910132.0         936383720.0        1611370123.0
Wiener process for Thermostat # 11       1 F T T  -7.2169956836733329E-02        3039538231.0          25912629.0        1608189467.0        1823124278.0        2331127605.0        2449500504.0        1683636369.0         362165168.0         814316280.0         869382050.0         980203903.0        2062101717.0        1683636369.0         362165168.0         814316280.0         869382050.0         980203903.0        2062101717.0
Wiener process for Thermostat # 12       1 F T T  -6.7722400494670465E-01        2762226669.0        4262778377.0        2250707948.0        3120407528.0        3704866228.0        1185520965.0         272317999.0         166758548.0         310112982.0         201045826.0        1680231254.0         118290799.0         272317999.0         166758548.0         310112982.0         201045826.0        1680231254.0         118290799.0
Wiener process for Thermostat # 13       1 F T T  -7.3817531449270457E-01        3689403510.0         367299738.0        3636386471.0        1925893934.0        3355800516.0        3520562622.0        2245755202.0        1652682525.0        2865544364.0         721509566.0         209733568.0         592362218.0        2245755202.0        1652682525.0        2865544364.0         721509566.0         209733568.0         592362218.0