 # Version information for this restart file 
 # current date 2023-12-06 14:57:22.718
 # current working dir /scratch/work/courses/CHEM-GA-2671-2023fa/students/tje3676/comp-lab-class/Week12/Runs/Proton
 # Program compiled at                              Sat Dec 12 18:27:15 EST 2020
 # Program compiled on                                         cs001.nyu.cluster
 # Program compiled for                                                nyu-intel
 # Source code revision number                                       git:8c64c6e
 &GLOBAL
   PRINT_LEVEL  LOW
   PROJECT_NAME proton_aimd_1ps_every0.5fs
   RUN_TYPE  MD
   WALLTIME 21600
 &END GLOBAL
 &MOTION
   &GEO_OPT
     OPTIMIZER  BFGS
     MAX_ITER  100
     MAX_DR     3.0000000000000001E-03
     &BFGS
     &END BFGS
   &END GEO_OPT
   &MD
     ENSEMBLE  NVT
     STEPS  2000
     TIMESTEP     4.9999999999999994E-01
     STEP_START_VAL  1998
     TIME_START_VAL     9.9899999999998238E+02
     ECONS_START_VAL    -1.1027786089125343E+03
     TEMPERATURE     3.0000000000000000E+02
     &THERMOSTAT
       TYPE  GLE
       REGION  MASSIVE
       &GLE
         NDIM  5
         A_SCALE     1.0000000000000000E+00
         A_LIST     1.8595758612559999E+02    2.7263853498399998E-01    1.1526100454610001E+01   -3.6414578262600003E+01 \
             2.3173375816020001E+02
         A_LIST    -2.7809524712060002E-01    8.5951591808710006E-05    7.2189048017650004E-01   -1.9844539343859999E-01 \
             4.2409257583420001E-01
         A_LIST    -1.4825808131210000E+01   -7.2189048017650004E-01    1.3590902121280000E+00    5.1498896280349999E+00 \
            -9.9949268450990001E+00
         A_LIST    -1.0372189126880000E+01    1.9844539343859999E-01   -5.1498896280349999E+00    2.6661910891169999E+01 \
             1.1507715495310000E+01
         A_LIST     2.1801346360420001E+02   -4.2409257583420001E-01    9.9949268450990001E+00   -1.1507715495310000E+01 \
             3.0958394565589998E+02
         &THERMOSTAT_ENERGY
               2.7946378964064161E-03
               4.2040866813534641E-04
              -1.1832597396256126E-03
              -9.3260574269791964E-04
              -9.4599784481453671E-03
               2.1292994946687151E-03
              -2.8916975117135209E-03
              -2.7962978382443664E-03
               4.5959412348782437E-03
               4.0530776872192724E-03
               9.5178714194181068E-03
               4.5616932085109567E-04
               2.4778870482691732E-03
              -1.0805008342247886E-02
               4.4026521242415380E-03
              -1.0374248116137616E-02
               4.3890048887277886E-03
              -4.0028567535315852E-03
               9.0424026106894376E-04
              -3.1654073223916983E-04
               1.6618120387604570E-03
               1.5041211977014277E-02
              -1.0816658987726801E-02
              -1.0157031798583696E-02
              -4.6681554122384328E-03
               1.2043068251487584E-03
               1.6971706855119706E-03
              -2.9142009504080587E-03
              -2.5924240983921112E-03
               6.8304626068481436E-03
              -5.6139512701643187E-03
              -1.7634164765829375E-03
               8.7327698158566214E-03
               1.7807568954763186E-03
              -1.1755736240590352E-03
               1.0817205440047892E-02
               1.9034912167408425E-03
              -4.7018808036038617E-03
              -2.7970400931599890E-04
              -1.6376560940976556E-03
               6.9254943261473920E-03
              -1.1550743960432042E-02
               3.8025097234099395E-03
               6.6422813651607539E-03
              -1.4171249060616171E-03
               4.6187749716812077E-03
              -1.0172161907262150E-02
               2.1753960837778441E-03
               3.5122678558123822E-03
               4.7193926004540443E-03
               1.1336290966602299E-03
               1.2717082740970691E-03
              -9.0908782835347358E-03
              -4.5872912533209739E-03
              -5.3271333106324169E-03
               2.1485956507916681E-04
              -1.6732060310722067E-03
              -3.7435757996141725E-03
               3.6872993534072338E-03
               1.0339693469770181E-03
              -9.1969850691852944E-04
              -4.4357314565290403E-05
               1.4937541610642176E-02
              -4.0504170991207148E-03
               9.2561522060035911E-03
               6.0542627168879634E-03
              -1.2183276344129947E-03
               4.9837592384296484E-03
               7.1526933336302735E-03
              -6.7568621389716213E-03
              -6.2961860317788812E-03
              -5.6388084674504780E-03
              -6.5470967019281255E-03
               6.5261421954893528E-04
              -4.4841920583527971E-03
              -1.0975598374790851E-02
               6.8014780773281358E-03
              -1.5243608708574285E-05
               7.8541662141135473E-03
               4.3933587611954639E-04
               5.4388595333619795E-03
              -4.2315831621974158E-03
               2.5693680787234156E-03
               1.8843548026553939E-03
               2.5359408653827823E-03
               5.7520409455209818E-03
              -8.2142297541925951E-04
               2.1937090088653934E-04
               6.8386038882184733E-04
              -7.9934159401326040E-03
               4.6443980996025060E-03
              -8.5499923502690058E-03
               2.0660596551105854E-03
              -4.1593870248415338E-03
              -4.8289729892660909E-03
               1.0456134401197990E-02
               1.6011282494548730E-03
               3.7484688889260062E-03
               4.5548549631517152E-03
               3.9019516776946372E-03
              -1.3646573109854698E-03
              -5.7188015066119511E-03
               3.5495831081852839E-03
               7.3286361190237810E-04
              -1.1529901257095105E-03
               8.3893939999621862E-03
               7.9522871351596549E-03
              -5.0787275222246445E-03
               6.8982424759046956E-03
              -1.2294959990954463E-03
               8.6324519404302330E-04
               7.7651228278378618E-03
              -5.0957068340452116E-03
               1.5280316291370449E-02
              -1.8531414258591125E-03
              -4.8387997984782440E-04
               1.8930090665674304E-03
               4.3070688539040046E-03
               1.0365511479464974E-03
               3.2091314491103397E-03
              -7.5649567308460281E-03
               4.7711578947655453E-03
               9.1941631365182706E-03
              -3.6441667467310133E-03
              -6.0057235732877577E-03
              -7.1432594432459615E-03
               4.6519192405201039E-03
              -4.7199440029759140E-03
               1.0192336521715081E-02
              -8.2165680321233982E-03
              -6.3010975261430470E-03
               1.1703536871872594E-02
               1.0437836905042496E-03
               9.2576123893718543E-03
              -1.0125205003716953E-03
               5.9936563272514056E-03
              -3.5887659353917314E-03
              -1.1320319527434782E-02
               7.9748445942551553E-04
              -4.8431574372164686E-03
               5.2152473008521098E-03
               8.3744741535140953E-03
               6.3792919588893417E-04
              -9.2690142800430446E-04
              -5.4913460778794696E-03
              -2.5724398250407607E-03
               1.2632420692447983E-02
              -4.0942571472777820E-04
               7.4324082772674928E-04
               1.9178515058957621E-03
              -2.0336950150532742E-02
               1.2020880570480107E-02
              -1.1842291651979356E-03
               4.4344356323237531E-04
               5.7932313900076245E-03
              -2.1259242143640009E-03
               3.8523085756440520E-03
               1.8958071491502922E-03
              -7.3704758455149120E-03
               4.4675350594540744E-03
               5.3156962540834021E-04
              -6.1639518429122617E-03
              -6.3792446305005425E-03
               2.1582517664099745E-03
               1.2965859666698172E-02
               7.4691233650568158E-03
               8.5950734589545080E-03
              -1.6270900315443079E-02
               1.9657662857885875E-03
               2.6047089146753093E-03
              -3.0523766772269979E-03
               1.5243797267891911E-03
              -2.6366385881066053E-03
              -5.6758499273887484E-03
               3.5219071585384058E-02
              -1.2274658070885272E-02
               5.5731074022932507E-03
              -2.2629860270852739E-03
               9.5503248837722678E-03
              -1.9636105862548816E-03
               9.3050481300342401E-03
              -3.4079064494383377E-03
               4.0179565484291815E-02
              -4.1169277288245348E-03
              -6.4642560579044315E-04
               3.4470114309291837E-05
               7.2296518710232502E-03
               2.2367559438540973E-03
              -1.1372765980589682E-02
              -2.7765753204583199E-03
               2.7428844204491626E-03
               5.3323312929055722E-03
               3.6608475126442574E-03
              -3.7914067115908585E-03
               2.0454915325500422E-03
               9.3226091685191578E-03
              -3.7551740832490804E-03
              -7.3750427147172178E-03
              -8.2852530210825968E-03
               4.2288572159487779E-03
               1.5926976546589912E-03
               5.6990768425121885E-03
               4.7025430561129389E-04
               7.9142805356562373E-03
              -1.1049979189992591E-02
              -1.0646727590542001E-02
               3.6742799136371502E-03
               4.2962749463276717E-03
              -4.9032130088183037E-03
               4.3740133734329213E-03
               1.4985592831118206E-04
               3.5913330635018153E-04
               3.5162520455547324E-03
               3.4252700710849055E-03
              -5.1784366685251352E-03
               5.8665367560451764E-03
              -7.6133113784654866E-03
               1.2701554578070194E-02
              -7.3213083384149101E-03
               5.2267831171534402E-03
               6.1618597218661972E-04
              -2.7243453807544718E-03
              -1.6111241664052929E-02
               1.1437072095482299E-02
               8.6642033075169881E-03
              -1.2129717425744731E-02
              -1.1567466561955074E-03
               1.9978988342864998E-03
               2.8552446368254525E-03
               2.0846192718600070E-03
              -6.1408766484810605E-03
               1.1948399613357526E-03
               1.1773856664535388E-02
              -1.8075913533818335E-04
              -5.4897471028390844E-04
              -5.6269059333371105E-03
               3.0787510434385165E-03
               1.5314180040819215E-03
              -8.0572274589156101E-05
              -3.4840170998461494E-03
               4.4259392169044348E-03
               1.0438375916321768E-02
              -4.2645141781672615E-04
              -3.5984305189053780E-03
              -7.7214309448884232E-03
               5.6036253880440224E-03
              -1.8670109138603978E-03
               2.0426688496521170E-03
              -4.6732101636839350E-03
              -4.9466614743506167E-03
               1.1718048693540447E-02
              -5.5806238715885486E-03
              -1.0301475456747320E-02
              -5.1979654703033498E-03
               2.5158806273144177E-03
              -4.5070972761455438E-03
              -2.6801200206646196E-03
              -4.2281959939321318E-04
               1.6677594610517072E-03
              -3.2900571542880414E-03
               6.8081714526031425E-03
               8.2381347326375906E-03
               2.9067266293733860E-03
              -7.1059559017915578E-03
               6.5727051450714695E-03
              -7.0572011469237032E-03
              -1.3641130912728913E-03
               9.0149784899820409E-03
              -9.2081788727764823E-05
               5.2806506798831363E-03
               5.3773244882847938E-03
              -1.4529295988695668E-02
               1.4088264094146468E-02
               5.3125636788512436E-03
               2.3067523313884484E-03
               1.4421607068776814E-03
              -1.8913168438360366E-02
               1.3098247763108880E-02
               1.8550446283930772E-04
               9.9964328276892812E-03
              -1.5638566119592381E-02
              -7.7396537574604476E-03
              -4.0405532959876733E-03
               7.5978912197821819E-03
              -4.9584879619065936E-03
              -5.8088063134868334E-03
               1.1264480683929374E-02
              -1.9219507595985230E-04
              -9.9015370583970478E-03
               6.6491176062340922E-04
               1.4423174902932323E-02
              -1.5813526329757522E-03
              -4.6693446100890467E-03
              -1.0269024850315609E-02
               5.9045622618606143E-03
               5.9944595682585033E-03
              -6.7596625887209666E-03
               1.9608319111251066E-02
               4.9214440472436114E-03
              -8.8357808514558794E-03
              -1.4693884491050928E-04
              -4.7779969665661644E-03
               3.7252047075119754E-03
               1.8535019188778708E-02
               8.2571952708211313E-03
              -6.8264405074874527E-03
               1.8865806733986505E-03
               1.0411604034092536E-02
              -1.9007141018312693E-04
               7.5753622737907023E-03
               1.5770438588699166E-03
              -2.3688900977349449E-03
               2.7534749664653931E-03
               1.6923291304651674E-04
              -4.3257122031605047E-03
               5.9499058977974615E-03
               1.7213025409942232E-04
              -4.9008884300056586E-03
              -1.5459169142529147E-02
              -7.5540121628239415E-03
               1.8320539590369696E-03
               7.7438190915908329E-03
               6.9543904153907812E-03
               7.2255417182134326E-03
              -8.1500928917195969E-03
               2.0579668849387271E-02
               7.2943157046236680E-04
               2.6007411618979752E-03
              -6.7646081179741817E-04
               6.6906868519951007E-03
              -1.4562764713201847E-02
               4.7640891763264812E-03
               3.8200079367890680E-03
              -3.7665871348298357E-03
               7.9157854022468849E-03
              -6.0750462067233413E-03
               5.4350915111640689E-04
               3.3027463208557604E-03
               5.8834565015112496E-03
              -4.2986682220254449E-04
              -1.2485595247243284E-02
              -3.3556467757912965E-03
               7.8721243712278482E-03
               2.7054953117429470E-03
               2.9991657336413922E-03
               8.9050575881933734E-03
               5.8678742067896552E-03
              -1.3529342295832102E-02
               1.4517235753117825E-02
              -2.9727252038917523E-03
              -2.5332478244102221E-03
               3.8063475487603539E-03
              -1.2280295475586681E-02
               5.9807506648671049E-03
              -6.6436041409443326E-03
              -4.2180969977108629E-03
               4.2233326679305041E-03
              -2.1696843558163719E-03
              -1.2818220934535237E-02
               6.6951548168497710E-03
               2.0631104507182565E-03
              -4.8157228496655364E-03
               1.9192266877491492E-02
               3.6440226903805555E-03
              -3.2231258936281470E-03
              -1.2008539572826704E-03
               1.4250747112474527E-02
              -1.5220389732630127E-04
              -1.1004260079469473E-02
              -5.8080001084415463E-03
              -1.8536772038587484E-03
               8.8453260663405343E-03
               1.0209765025914858E-03
              -1.4823607362128293E-03
               4.1856298969211517E-03
               5.8791748081067794E-03
              -1.2602938080429504E-02
              -1.7265288135058881E-02
               1.9084357805747110E-03
               1.1681181740850196E-02
               4.9043047772840817E-03
               6.7761611891465345E-03
              -4.8214605607968895E-03
              -1.1927079241371287E-05
              -1.2330840489241882E-02
              -1.8885472782265642E-03
               4.7892176679738378E-03
               1.3500419364991924E-03
              -5.7426384271079406E-03
               6.2545254430246286E-03
              -6.6314353923512875E-03
               6.5053102348476347E-03
               5.4478350194476556E-04
              -6.2651662060653019E-03
               1.2266063490045493E-02
              -7.8108068099934477E-04
               5.4157179262669854E-03
              -7.3506119004588038E-03
              -1.3909437047246536E-03
               2.5607183991210793E-04
               2.2872461058771072E-03
               3.9195873447420218E-03
              -1.4643737416726089E-03
               7.8758315228287415E-04
               3.1356444490108818E-03
              -9.3171360505864172E-03
              -3.4298946474268792E-03
               6.3049384218229797E-03
              -1.1593024080626660E-03
               8.3577447362123724E-04
               4.7883943170871583E-03
              -1.0102919998973725E-03
              -4.4375187150188893E-03
               2.8642620022276549E-03
               7.6359292061491078E-03
               9.5227778628147967E-04
              -3.1066204751487932E-03
               1.5773583175057941E-03
              -1.0411335748717443E-03
               1.4290022876932362E-03
              -2.6140473410341358E-03
               8.1534431760020634E-03
              -2.7943047234357632E-03
              -1.0403293012211882E-02
               9.4221415529795651E-03
              -8.2630663736454613E-03
              -1.1991157509694391E-03
              -7.0257739362552148E-03
               2.5059113193219682E-03
              -1.4682879736631886E-04
              -3.2295281000074201E-03
              -2.2417544596045258E-03
              -1.7886441636979108E-02
               1.7391248125875659E-02
               1.3387466811009137E-02
               4.2874851641673817E-03
              -6.8462835495569007E-03
              -2.8438189636315258E-03
              -7.8465594472907074E-03
              -5.7172701749183420E-03
               8.0155233811465311E-03
              -5.4085272910380953E-04
              -3.2999476441756600E-03
               5.4791420855031343E-03
               3.4441297741906202E-04
               6.2055718561320949E-03
               1.5426007683631913E-03
               6.0128319920551123E-03
               1.0622194168352236E-02
              -1.1552933903381262E-02
               7.9941670796920556E-04
              -8.8674722099116639E-03
               1.6153777121431835E-03
              -1.6959298312976649E-03
               3.8521248276356195E-03
              -4.7725088732913637E-03
              -1.5377366777039698E-02
              -1.8934540438401232E-02
               5.6164020885586851E-03
              -3.9512850490241100E-03
               1.7569592201729177E-02
               1.0891669485822261E-02
              -8.9491859927185412E-03
               3.3104775445269509E-03
               1.2468103585647318E-03
              -1.0806456507075591E-03
              -7.4320024760187280E-03
               1.4759141411616488E-03
               9.2626494319357072E-03
              -4.6140445842634981E-03
              -4.8047494157181835E-03
              -7.0290003301222590E-03
               3.4188183210241609E-04
              -7.0281390478481168E-04
              -3.1372938875088761E-03
               7.4039193582584890E-03
              -4.3373613050727902E-04
               2.4712549546189646E-03
               1.2851274315665254E-03
              -1.8928079452964438E-03
               4.0961842323179243E-04
              -9.2926011687603912E-04
               5.3231046350542986E-03
               7.5272450318563050E-03
              -1.9817441521299307E-03
              -3.7255376989596039E-03
              -1.5402469733698779E-03
               2.5924559310484757E-03
               3.3364015593139807E-03
              -1.9055002552905364E-03
               7.2521774605893508E-03
               2.7807964548837725E-03
               1.3126720909733646E-02
              -9.6790626854728942E-03
              -4.4556758083034139E-03
              -3.9977188692962343E-04
               3.8968121395680250E-03
              -6.6411868146105035E-03
               8.0714587554844789E-03
               7.4825743942089559E-03
               3.1360492492281183E-04
               6.1905635404830104E-03
              -1.8126266837416114E-02
               1.4486487509388798E-02
               2.6512840298782772E-03
              -1.2609410374088912E-02
              -4.5899486114524069E-03
               1.9016665725072779E-03
               9.7270314922872393E-03
               6.5066128558763465E-03
              -4.3950411598390193E-03
               6.7151375193394173E-03
              -2.3777129965481818E-03
              -8.8305263709422439E-03
               1.3223831858382530E-02
              -1.3341209992485189E-02
              -3.4580953233841146E-03
               1.8439838233240207E-03
               4.1798255953633401E-03
               3.5688753519226742E-04
              -2.1468997000461620E-02
               4.4529226898762262E-03
               1.3038004206785813E-02
              -9.7155669195277648E-04
               1.7922712051980816E-03
               2.3534134985030964E-03
              -2.3272766744994117E-03
              -3.7432338426633704E-03
               8.5274513524730353E-03
              -8.7988836706374290E-04
               2.7175335568123795E-03
               9.2833275442846946E-03
              -1.6831030470017192E-02
              -3.7166652562354175E-03
               7.2834307884057708E-03
               2.9364710790283279E-04
               3.2876674343764145E-04
              -2.4216184795806728E-04
               3.2247815317520117E-03
               4.5197742431708678E-03
               2.8831759449027125E-03
              -1.1318055397476071E-03
              -6.8716120646720629E-03
               9.8346781879404756E-04
               2.5825902421572457E-03
              -6.8266580952777572E-03
               8.2877529114010265E-03
              -3.4329147561209831E-03
               3.5010191867852368E-03
              -5.2482951680924731E-03
              -5.9837553390854874E-03
              -3.2134635855069508E-03
              -5.8886752563722079E-05
              -3.3129904047722097E-03
              -3.3798427670530744E-03
              -1.8517952605531084E-03
              -7.9312384402745444E-03
               4.5580197316328844E-03
               1.3253353898915684E-02
              -1.5500059027485993E-03
               7.9658863221042961E-04
               5.7715234294927614E-03
              -1.4014281105132983E-03
               5.6868582963272834E-03
              -9.6662350957663545E-04
              -5.6264390620528650E-03
              -1.3844502435415894E-03
              -6.1906562560153991E-03
               4.5674853515772131E-03
               9.6404115439828616E-05
              -4.9075178605079324E-03
               2.0329595707036124E-03
               5.9037004284668388E-04
              -6.4142783342657659E-03
              -2.8085414931484027E-03
               1.6479271056200555E-02
               1.7944782472061577E-02
               3.4524833132264089E-03
              -3.1798439200328012E-03
         &END THERMOSTAT_ENERGY
         &RNG_INIT
Wiener process for Thermostat # 1        1 F T T  -1.5601997779545997E+00        4027757407.0        1559045809.0        3403552754.0        1703120254.0         453778739.0        2861026355.0             12345.0             12345.0             12345.0             12345.0             12345.0             12345.0             12345.0             12345.0             12345.0             12345.0             12345.0             12345.0
Wiener process for Thermostat # 2        1 F T T  -4.0112764818655514E-02        3838101567.0        1430396723.0        1556923290.0        2889325561.0         607612135.0        3761282217.0        3692455944.0        1366884236.0        2968912127.0         335948734.0        4161675175.0         475798818.0        3692455944.0        1366884236.0        2968912127.0         335948734.0        4161675175.0         475798818.0
Wiener process for Thermostat # 3        1 F T T  -2.7485675335982579E-01         482699311.0        2506409672.0        1202736307.0        1073196783.0        1141297417.0        2856513754.0        1015873554.0        1310354410.0        2249465273.0         994084013.0        2912484720.0        3876682925.0        1015873554.0        1310354410.0        2249465273.0         994084013.0        2912484720.0        3876682925.0
Wiener process for Thermostat # 4        1 F T T  -9.8957058820594379E-01        3129827523.0        3549124345.0        1353678049.0        1344233659.0        2578763699.0        1106953444.0        2338701263.0        1119171942.0        2570676563.0         317077452.0        3194180850.0         618832124.0        2338701263.0        1119171942.0        2570676563.0         317077452.0        3194180850.0         618832124.0
Wiener process for Thermostat # 5        1 F T T   8.1743834600370391E-01         587879607.0         702838090.0         820286405.0        1159088393.0        1840431053.0        2379049004.0        1597262096.0        3906379055.0        3312112953.0        1016013135.0        4099474108.0         275305423.0        1597262096.0        3906379055.0        3312112953.0        1016013135.0        4099474108.0         275305423.0
Wiener process for Thermostat # 6        1 F T T  -4.6635220676026440E-01        1255338812.0        2941627828.0        2767710176.0        1701464963.0        2824905014.0        2257709657.0          97147054.0        3131372450.0         829345164.0        3691032523.0        3006063034.0        4259826321.0          97147054.0        3131372450.0         829345164.0        3691032523.0        3006063034.0        4259826321.0
Wiener process for Thermostat # 7        1 F T T  -2.7221417990508723E-01        2928923925.0        1475590831.0        3028549759.0        1729569924.0         123262326.0        1965188850.0         796079799.0        2105258207.0         955365076.0        2923159030.0        4116632677.0        3067683584.0         796079799.0        2105258207.0         955365076.0        2923159030.0        4116632677.0        3067683584.0
Wiener process for Thermostat # 8        1 F T T  -1.3371509559371584E+00        3293786404.0        2324351260.0        4224364702.0        1341956089.0         912321799.0        2697559406.0        3281794178.0        2616230133.0        1457051261.0        2762791137.0        2480527362.0        2282316169.0        3281794178.0        2616230133.0        1457051261.0        2762791137.0        2480527362.0        2282316169.0
Wiener process for Thermostat # 9        1 F T T  -8.7225140957356684E-01         657961678.0        1513147170.0        2219186603.0        4111646695.0         616753226.0        2747528653.0        3777646647.0        1837464056.0        4204654757.0         664239048.0        4190510072.0        2959195122.0        3777646647.0        1837464056.0        4204654757.0         664239048.0        4190510072.0        2959195122.0
Wiener process for Thermostat # 10       1 F T T  -6.2889449580622436E-01          96284293.0        2446379684.0        3801610533.0        2961863039.0        1877110468.0         129512113.0        4215590817.0        3862461878.0        1087200967.0        1544910132.0         936383720.0        1611370123.0        4215590817.0        3862461878.0        1087200967.0        1544910132.0         936383720.0        1611370123.0
Wiener process for Thermostat # 11       1 F T T   5.7191327297384098E-01         909895394.0        1862319182.0        2400367466.0        1201802882.0        2818881371.0          83822050.0        1683636369.0         362165168.0         814316280.0         869382050.0         980203903.0        2062101717.0        1683636369.0         362165168.0         814316280.0         869382050.0         980203903.0        2062101717.0
Wiener process for Thermostat # 12       1 F T T  -2.0098512161557830E-01        4281566709.0        2729512869.0         275332126.0         437149450.0        1041778670.0        1778805263.0         272317999.0         166758548.0         310112982.0         201045826.0        1680231254.0         118290799.0         272317999.0         166758548.0         310112982.0         201045826.0        1680231254.0         118290799.0
Wiener process for Thermostat # 13       1 F T T   9.4560796151122029E-01        3557498645.0        2583014714.0        2425630516.0         920535172.0        3770643442.0         978988578.0        2245755202.0        1652682525.0        2865544364.0         721509566.0         209733568.0         592362218.0        2245755202.0        1652682525.0        2865544364.0         721509566.0         209733568.0         592362218.0