 # Version information for this restart file 
 # current date 2023-12-06 12:21:16.331
 # current working dir /scratch/work/courses/CHEM-GA-2671-2023fa/students/tje3676/comp-lab-class/Week12/Runs/Proton
 # Program compiled at                              Sat Dec 12 18:27:15 EST 2020
 # Program compiled on                                         cs001.nyu.cluster
 # Program compiled for                                                nyu-intel
 # Source code revision number                                       git:8c64c6e
 &GLOBAL
   PRINT_LEVEL  LOW
   PROJECT_NAME proton_aimd_1ps_every0.5fs
   RUN_TYPE  MD
   WALLTIME 21600
 &END GLOBAL
 &MOTION
   &GEO_OPT
     OPTIMIZER  BFGS
     MAX_ITER  100
     MAX_DR     3.0000000000000001E-03
     &BFGS
     &END BFGS
   &END GEO_OPT
   &MD
     ENSEMBLE  NVT
     STEPS  2000
     TIMESTEP     4.9999999999999994E-01
     STEP_START_VAL  1000
     TIME_START_VAL     4.9999999999999636E+02
     ECONS_START_VAL    -1.1027786089125343E+03
     TEMPERATURE     3.0000000000000000E+02
     &THERMOSTAT
       TYPE  GLE
       REGION  MASSIVE
       &GLE
         NDIM  5
         A_SCALE     1.0000000000000000E+00
         A_LIST     1.8595758612559999E+02    2.7263853498399998E-01    1.1526100454610001E+01   -3.6414578262600003E+01 \
             2.3173375816020001E+02
         A_LIST    -2.7809524712060002E-01    8.5951591808710006E-05    7.2189048017650004E-01   -1.9844539343859999E-01 \
             4.2409257583420001E-01
         A_LIST    -1.4825808131210000E+01   -7.2189048017650004E-01    1.3590902121280000E+00    5.1498896280349999E+00 \
            -9.9949268450990001E+00
         A_LIST    -1.0372189126880000E+01    1.9844539343859999E-01   -5.1498896280349999E+00    2.6661910891169999E+01 \
             1.1507715495310000E+01
         A_LIST     2.1801346360420001E+02   -4.2409257583420001E-01    9.9949268450990001E+00   -1.1507715495310000E+01 \
             3.0958394565589998E+02
         &THERMOSTAT_ENERGY
              -5.0181900358628386E-04
              -1.1067445291974795E-03
              -1.0411969467792289E-03
               1.8785689769711773E-03
              -8.9005829385740125E-03
              -1.3655140582978474E-04
              -4.8642441731651170E-03
               7.4830442070957306E-04
               4.9986978823438454E-03
               4.4739594977553409E-03
               8.8927569487197138E-03
              -2.9504131485121659E-03
              -2.5596669086529107E-03
              -5.7971455535592098E-03
               7.2936881856779491E-03
              -6.4207973816827269E-03
               3.7649351728819454E-03
              -3.5133234951137283E-03
               3.1951985440724414E-03
               1.1145907482434940E-03
               3.9194217134844531E-03
               1.9454477172145004E-03
              -3.8694041086729915E-03
               1.3490031373206322E-04
              -8.6346445670614294E-03
              -5.2977656466953243E-03
              -2.9320162924897312E-05
               3.0438092067809593E-03
               1.6268539979549619E-03
               2.9558443202859189E-03
              -8.5341366775679734E-03
              -1.4358448881076880E-03
               9.3536586586170610E-03
               2.4577893457061804E-03
              -1.0299616076038619E-02
               1.0082300697110389E-02
              -2.3569932683908616E-03
               6.0099307026899220E-04
               1.1336563441937694E-03
              -8.6349915684142894E-03
               5.8363272946184768E-03
               4.5174157476123321E-04
               4.0617156898507603E-03
               4.2620601904431680E-03
              -4.3736158128258725E-03
               2.1546804747871319E-03
              -5.1419624684398675E-03
              -4.7702774167005142E-04
               7.5929263203986311E-04
              -4.5132938082898602E-03
               2.5575275248243428E-03
              -2.8518160209708245E-03
              -7.5215210427962073E-03
               1.9041127665430100E-03
              -3.5093577334953012E-03
               2.1244310641191778E-03
               3.7640964665202128E-04
               2.5728921557735800E-03
               1.4249861749824112E-03
               2.5763686985810592E-03
              -3.4101773942591734E-03
               6.3502141818170871E-04
               8.9960323826716298E-03
              -1.8392332635224727E-03
               1.6302171757509151E-03
               2.7751253907550210E-03
               2.3010792185953989E-03
               1.5543835590127728E-03
               2.8446393699603075E-03
              -1.9788788080655952E-03
               9.1359863459800040E-04
              -6.0929910717928606E-03
              -2.5291867943059024E-03
              -2.0005556525773279E-03
              -4.2166694359565514E-03
              -2.4654274323275801E-03
               5.3224942055726514E-03
               2.4206158346935284E-03
               7.5497020018038749E-03
              -2.2367214871510809E-03
               1.7579326312965272E-03
              -1.5241818679983970E-03
               2.1839848637503468E-03
               4.8840729464186043E-05
               3.5318298047318864E-03
               5.1185214831049597E-03
              -5.4570303148170300E-03
               2.8771770195398774E-03
               6.0097113651680408E-03
              -6.2617294103525598E-03
               2.7639492096161525E-03
              -7.6041352626201823E-03
               2.3731624973486925E-03
               2.7069000469315497E-03
              -1.0480718402344826E-02
               1.0014275397051475E-02
               8.3113872079190170E-03
               3.5001973202915719E-03
               4.9284881394710761E-03
               2.9954846288650955E-03
               1.9289350673797252E-04
              -7.6170348058494670E-03
               9.4914739188230483E-04
              -3.0807462428926674E-03
               3.9464317344293396E-03
               2.8929795729083253E-04
               5.3950420462346152E-03
              -4.0807589214390019E-04
               4.1796029921042878E-03
              -2.2218956862443589E-03
               2.9058536598048756E-04
              -6.0283983854526020E-03
               5.6035595373325605E-03
               1.0363918416789525E-02
               3.2754600426322172E-03
               2.3902966161136363E-03
              -6.8522001982070620E-03
               2.5460534660698216E-03
              -9.4284488924511567E-04
              -1.7160024300006513E-03
              -7.1148199846816501E-03
               7.8311049867174683E-03
               1.0242258581512285E-02
              -2.8760315832115761E-04
              -4.2714070609798970E-03
              -4.3642154825559807E-03
               5.1642722276581824E-03
              -2.4768687555427539E-03
               5.0337974979639622E-03
              -8.8549533502897924E-03
              -6.3824357572915295E-03
               6.5822878786277851E-03
               2.7558797593713598E-03
               4.1046963580515378E-03
              -4.3046779747309147E-03
               1.4449767521115533E-03
              -3.6822042658780994E-04
              -7.3181265060793714E-03
              -1.4151006564660012E-03
              -9.3068780988250915E-03
               7.4203327122244235E-03
               1.0948002333638000E-03
               8.0438736106754026E-03
              -3.1413815925028803E-04
              -3.9235615838926936E-03
               4.5556927442778878E-04
               1.3127770723454056E-02
               7.6157063274969372E-04
              -6.6220125929449154E-04
               9.0960519531483046E-04
              -9.2216565848370693E-03
               4.3797604062711538E-03
              -2.5458265745391471E-04
              -1.7330852794229877E-04
               1.1794054990299069E-03
               1.5371107151963756E-03
               1.5211666265462897E-03
              -5.0051067443830592E-03
              -6.5643478401968642E-05
               7.8275379172252860E-03
               3.1404546874449086E-04
              -3.0842284913150373E-03
              -2.4456037858545908E-03
              -1.3059414982680587E-03
               6.0404672699767934E-03
               9.0553080280470766E-03
               9.6014126280149527E-03
              -9.7503880406978154E-03
              -4.1321780562736049E-03
               2.6306457001691250E-04
               3.2902263123859611E-03
              -2.2526015478075713E-03
              -2.5670319859417800E-03
              -2.2413087248675774E-03
               2.8625392406306634E-02
              -4.2314129080128597E-03
               1.1661122298308584E-02
              -4.1502815604211723E-04
               1.5861966604843144E-03
              -2.8349707186592068E-03
               8.0533505499909789E-03
               5.5564538143807666E-04
               2.5423233682726133E-02
              -6.9373354272573677E-03
               1.5527369628663878E-03
               1.7721564278683194E-04
               3.3169027535929702E-03
               1.1150042870724229E-03
              -4.5307405735251875E-03
              -4.9223383425413859E-03
              -2.3810092122491863E-05
               5.0531120433446727E-03
              -1.7130088168010513E-03
              -3.3925862418459777E-03
               3.1415534941342926E-03
               9.0923049711371644E-03
              -6.4083858246086079E-03
              -1.8353714097706728E-03
               1.2494427080026135E-03
              -2.6984935938666557E-03
               3.0037755232026147E-04
               2.4448007587991312E-03
              -1.0034451146521261E-03
               5.0122454472324458E-03
              -2.5732856163733996E-03
              -8.6765209600386875E-03
               3.6779349412699221E-03
               8.5658461223125058E-03
              -5.5491921627233466E-03
               5.0117184337817467E-03
              -4.5873759384995189E-03
               2.1957769806910635E-03
               5.7260808961156415E-03
               3.4471005995780051E-03
              -7.2347724594194890E-03
               1.4211126379716449E-03
              -5.5296665228128294E-03
               6.1267682066214486E-03
               5.2262219742698138E-03
               3.4902576613496726E-03
               1.4057352242253583E-03
              -8.1822084580938925E-04
              -7.9100117568473259E-03
               7.1340798112032979E-03
              -8.1198679153992245E-05
              -1.5485549086571690E-03
               1.2006272615168487E-03
               2.4300593721126467E-03
              -5.0261650425507259E-04
              -4.3973012991446406E-03
              -4.2438633966999989E-03
               1.2324053538852742E-03
               5.9913655044956538E-03
              -2.1283491171338715E-03
              -4.3424656593935634E-03
              -2.8234588767854594E-03
               2.8613918346382075E-03
               2.0212011224499979E-03
              -3.4785231612664974E-03
              -2.2379488976230542E-04
               1.0072151866161410E-03
               3.2213168790668299E-03
               1.3941535742567331E-03
               4.0197154005521566E-03
              -6.5076747242004233E-03
              -2.8361122278837316E-04
              -3.4471841608566061E-03
               7.0009066412782272E-04
              -3.2318442010241749E-03
              -1.2842872413743477E-03
               4.0752156842089630E-03
               1.2703433843564641E-04
              -4.7726738880628592E-03
              -3.6607129512315215E-03
               1.7589621771550862E-03
              -2.7846827415225475E-03
              -4.2930674638875458E-03
              -1.9301381673861463E-03
              -4.8912428743948296E-03
              -6.5672921226940712E-04
               4.8104850828319416E-03
               4.5340983125810499E-03
               8.0260402685961695E-03
               8.2200962943030688E-04
               4.1133193514028450E-03
              -4.0641465480378142E-04
              -1.4323857843839046E-04
               2.4656831893267455E-03
              -5.1403370790230989E-03
               3.6353720638808190E-03
              -1.5654148036412237E-03
              -6.8317242141649965E-03
               8.0442405442765104E-03
               4.3088550648852893E-03
               3.1851592660632873E-04
               7.9536146190740443E-04
              -1.1039033078598100E-02
               9.0048002947426282E-03
               2.0798438179132836E-03
               1.3078022131068536E-03
               3.1745515854771599E-04
              -1.1873906259654470E-02
               8.7264736988153821E-04
               1.7622078637947369E-03
              -9.1220470913748811E-04
               9.1726183009662105E-04
               1.2057817799586007E-03
              -8.2122867840292608E-03
              -6.8351470627339428E-03
               6.3535015587467235E-03
               8.3450642776084112E-03
              -6.4466891175986416E-04
               3.3089829751178179E-03
               5.1397905624258125E-04
               5.3415324914362888E-03
               4.9365961307133695E-03
              -6.0616605985524003E-03
               9.7617163278309084E-03
               1.1184314238664326E-03
              -8.8467393354713826E-03
              -1.6177848470112978E-03
               3.1900408856669219E-04
               4.8202371132167248E-03
               8.5010192397476439E-03
               1.2496991002954689E-03
              -3.3344624642426069E-03
              -4.8897979187544917E-04
               2.4621574585696592E-03
              -2.1978592997062781E-04
               8.5253043776513208E-03
              -1.3991273019146788E-04
              -3.4219861487377531E-03
              -8.3161281545665220E-04
               2.9317738966958659E-03
              -1.0875337129514320E-03
               2.7457914204853163E-04
              -5.4933665126540342E-03
              -3.0335431391251468E-03
              -5.9006106942965193E-03
              -2.4303081404567946E-03
               2.9873298579767530E-03
              -1.6682377856888004E-03
               3.1312517748873616E-03
              -2.0531048331068840E-04
               4.0725650282679056E-03
               2.0493187261289036E-03
               1.2106585558784449E-03
               1.6961991599526145E-03
               3.2704125768038390E-03
               3.9625332741627297E-03
              -6.0270560044817503E-03
               3.1913217859484802E-04
               2.8041838836056357E-03
               1.4059066815952953E-03
              -3.4310589471099103E-03
               2.5684479420214428E-03
               4.3858145008197919E-03
              -6.4826207373856770E-04
               9.8985480107962980E-04
               3.0540226285906487E-03
              -7.1744020374923494E-03
              -8.2499616427404384E-04
               7.8046785056161919E-03
               1.5513756081907343E-03
               4.3399293444293160E-03
               6.8205723802182046E-03
               2.6661713889957767E-03
              -6.9415439642644388E-03
               7.9099215748009051E-03
              -3.2104807922546008E-03
              -5.4926201554781652E-04
               2.8371863584607158E-03
              -7.5196040343760064E-03
               3.8253533995546703E-03
              -3.7920845813303361E-03
              -4.4752491996964006E-03
               1.2055645607015940E-03
               3.5018293347999817E-03
              -8.9973645439529459E-03
               1.8500762777116241E-03
               4.6445879736572635E-04
               2.7713660192134016E-03
               8.1178141272679766E-03
               3.9969022880989259E-03
              -2.6701451611359163E-03
               3.9080040847590987E-03
               1.7995777323664940E-02
               1.9124441898735372E-03
              -1.6597136898893621E-02
              -6.2236376086292448E-03
               3.5742340784614014E-03
               7.6003002393793928E-04
               8.1973207506824426E-04
               1.2966111479071180E-03
              -2.3591868101345897E-03
              -2.1729460340655033E-03
              -1.0989564975512149E-02
              -5.5858730950194488E-03
              -1.4062704437326158E-03
               6.8163102533938657E-03
               4.9377729769863330E-03
               1.6284424019026070E-03
              -6.4787941032781596E-04
              -4.2973637554053409E-03
              -8.7625281371640495E-03
              -5.3029160556795117E-03
               4.8410703105633730E-03
               3.1939861910609030E-03
              -4.0484602318554275E-03
               3.1627715156831724E-03
              -2.6061133736121475E-03
               5.0413222214666376E-03
              -1.6878853475079630E-03
              -4.5521704807021043E-03
               6.2120583332524563E-03
               2.7767387263919982E-04
               2.0296126162238585E-03
               1.1558155368559116E-03
              -1.9018810858823564E-03
              -3.6429538568920265E-03
              -2.0510568511300413E-03
               2.8147709481911834E-03
              -2.1408936667159963E-03
              -1.1136514875290679E-03
              -1.0723404660232811E-03
               2.2590028494738389E-03
              -4.7852087653339043E-04
              -2.6075619758264695E-03
              -4.9153088766658816E-03
               3.7184269143842215E-03
               3.7071655839315647E-03
               4.1144527161409974E-03
              -3.4928558349825809E-03
              -4.4279512213042122E-03
              -1.4430011935785681E-04
               3.4524019736415549E-03
               6.4545384280068627E-04
               2.2628637528426354E-03
              -1.1373165199644328E-03
               1.6937779587738158E-03
              -6.6042101671745176E-04
               1.6161589708288187E-03
              -5.6910064124244394E-03
              -3.0570083034646145E-03
               8.0675140417999832E-03
              -4.3190714701038862E-03
               1.4998600830484897E-03
              -4.3833667592079982E-03
               8.8347645338937933E-04
               4.5486175454707055E-03
              -1.0576665210324172E-03
              -6.6392057122811729E-03
              -9.6265475912133535E-03
               2.8547235411813150E-03
               1.0739940039382247E-02
               3.6805958906548915E-03
              -4.0602564528476326E-03
              -3.5515100077097876E-03
               2.0561914719196325E-03
               2.2879427578126069E-05
               1.0046205630992787E-02
               9.5442808864649043E-04
              -1.7430456721540047E-03
               3.7105559051658459E-03
               8.6144363418074279E-04
               6.2099176897863744E-03
               4.8525914233286133E-03
               5.9074701940315085E-03
               4.5246144948924956E-03
              -1.0176233838030123E-02
              -3.9347341579691166E-03
              -5.1851570820719006E-03
               5.3156098017385807E-03
              -2.1670911398118950E-03
              -7.9480988355696755E-05
              -5.5078128308605123E-03
              -6.6282200625514681E-03
              -2.8065267464004425E-03
               2.7183312778690000E-03
              -1.7142334766340934E-03
               8.3096656961783345E-03
               1.0003176278405256E-02
              -1.5920664098609334E-03
               3.0396188190619702E-03
               7.4999286367021002E-03
               5.7021390390737479E-03
              -7.4635230058504943E-03
              -5.3660343410663900E-03
               6.3737201963772589E-04
               1.6925120214150832E-03
               4.8410297488505390E-04
              -1.6198175320670854E-04
               1.3315632549935250E-03
              -2.7107744393419144E-03
              -6.2326320784436597E-03
               2.8944614410745333E-03
              -1.6103748426714744E-03
              -1.7259961691347882E-03
              -3.5397523996015751E-04
              -2.7597750606164068E-04
              -1.3448351022597033E-03
              -7.6527399101513434E-04
               4.1117911644030338E-03
               6.4838293234259336E-03
               1.3737377035857893E-03
              -4.6244941121586537E-03
              -3.7336481553497916E-03
               5.0493010984434586E-04
               2.3890246734233878E-03
              -1.2351594730431231E-03
               5.4737826154633781E-03
               2.9580601498979315E-03
               9.3973632886691326E-03
              -6.7612912051297405E-03
               3.6591861716426106E-04
              -6.1320999355157389E-04
               1.1892472241118858E-03
               5.9464837639680948E-04
               5.6861507227216187E-03
               1.7735833541970886E-03
              -1.4062671688486565E-03
               2.3063024654773378E-03
              -9.5450295507168263E-03
               1.5606284919715597E-02
              -3.7538678776727463E-03
              -5.6648793742300352E-03
              -3.6608212254429845E-03
               5.6384215940946444E-03
               6.5561531822839851E-03
               4.3529839465983322E-04
               4.8684774641256376E-03
               2.6207735083854048E-03
              -5.5857217172372306E-03
              -1.0242839828503918E-02
               1.0425967790982925E-02
              -5.5899113116453592E-03
              -3.6402411318512138E-03
               4.2354464592248798E-03
               3.2164989996899076E-03
              -2.0378227530667898E-03
              -1.1597454933896406E-02
               5.3970172256724517E-03
               4.7982884398375548E-03
               2.4349359130661063E-03
              -1.9421318752895354E-04
               2.6029362280474114E-03
              -2.3032367539767484E-03
               5.1400840475453505E-04
              -2.9178764045482682E-04
               2.3290018977238820E-03
               4.5168946238387042E-03
               1.1555302845911194E-03
              -5.0051058918034082E-03
              -1.1558829086862853E-03
               1.9779763923081185E-03
              -5.3272685099340820E-04
               7.6814067632050009E-04
              -3.1502280757526252E-03
              -1.9616546100806658E-03
               7.8585518444627307E-03
               1.8264352879456261E-03
              -2.8803320305413396E-03
              -6.0650538293571966E-03
               3.1784196120352142E-03
               3.1507382433360719E-03
              -1.5427611345467860E-03
               3.2598452862975637E-03
              -4.2892199938273758E-03
               8.9863551537416649E-03
              -2.7872270500167641E-05
              -5.5139948040518845E-03
              -4.4628878392788578E-03
              -3.3932242129827716E-04
              -3.8618148490671680E-03
              -1.1046758571359844E-03
              -1.7463307064930567E-03
              -4.7495700891344956E-03
              -4.5656847861760622E-03
               1.0728822465896541E-02
               8.9976025903549248E-04
               5.6046272105301324E-03
               3.0719000027725507E-03
              -1.2123073191771484E-03
               1.2852000288574911E-03
              -3.3069423920829709E-03
              -2.3655560143219986E-04
              -4.1758722558856978E-03
              -4.1087618762952575E-03
               4.7202103938888285E-03
              -7.9719741178762454E-04
              -1.0820644969864544E-03
               2.8277166988450162E-04
              -2.0251968237561964E-03
              -6.0250682955067594E-03
              -3.0710898205789795E-04
               4.9107107638442522E-03
               9.4595893857344071E-03
               9.7458897622626443E-03
              -7.7564491902499489E-03
         &END THERMOSTAT_ENERGY
         &RNG_INIT
Wiener process for Thermostat # 1        1 F T T  -9.8236738167888460E-01         226733040.0        4248387519.0        1164353849.0        2758509449.0        3644127687.0        1764793484.0             12345.0             12345.0             12345.0             12345.0             12345.0             12345.0             12345.0             12345.0             12345.0             12345.0             12345.0             12345.0
Wiener process for Thermostat # 2        1 F T T  -1.4171306107827426E+00        1528154308.0        2775625301.0         197130159.0        1452211673.0        1835562137.0        1983376171.0        3692455944.0        1366884236.0        2968912127.0         335948734.0        4161675175.0         475798818.0        3692455944.0        1366884236.0        2968912127.0         335948734.0        4161675175.0         475798818.0
Wiener process for Thermostat # 3        1 F T T   8.6049543281786645E-01        2248570378.0        1724762616.0          52903713.0        3229622658.0        3199004837.0        4241126217.0        1015873554.0        1310354410.0        2249465273.0         994084013.0        2912484720.0        3876682925.0        1015873554.0        1310354410.0        2249465273.0         994084013.0        2912484720.0        3876682925.0
Wiener process for Thermostat # 4        1 F T T  -1.5460863137690717E+00         957380376.0         510326667.0        2247033635.0        2033071685.0        3054261466.0        3462352516.0        2338701263.0        1119171942.0        2570676563.0         317077452.0        3194180850.0         618832124.0        2338701263.0        1119171942.0        2570676563.0         317077452.0        3194180850.0         618832124.0
Wiener process for Thermostat # 5        1 F T T   1.5428690481661575E-01        4203301200.0         738999836.0        1485820986.0          20648636.0        2223680357.0        4294941489.0        1597262096.0        3906379055.0        3312112953.0        1016013135.0        4099474108.0         275305423.0        1597262096.0        3906379055.0        3312112953.0        1016013135.0        4099474108.0         275305423.0
Wiener process for Thermostat # 6        1 F T T   7.0411917217518150E-01        1265311014.0        3687607523.0        1792102642.0         142025920.0         459804801.0        1211121065.0          97147054.0        3131372450.0         829345164.0        3691032523.0        3006063034.0        4259826321.0          97147054.0        3131372450.0         829345164.0        3691032523.0        3006063034.0        4259826321.0
Wiener process for Thermostat # 7        1 F T T  -9.5744195640119531E-02        4040223344.0        4246262317.0         329086624.0          28777921.0        2946509694.0        1489700490.0         796079799.0        2105258207.0         955365076.0        2923159030.0        4116632677.0        3067683584.0         796079799.0        2105258207.0         955365076.0        2923159030.0        4116632677.0        3067683584.0
Wiener process for Thermostat # 8        1 F T T  -1.2413826789147817E-01         252045112.0        2848200345.0         154646410.0        1271924195.0        1873079261.0        3351978939.0        3281794178.0        2616230133.0        1457051261.0        2762791137.0        2480527362.0        2282316169.0        3281794178.0        2616230133.0        1457051261.0        2762791137.0        2480527362.0        2282316169.0
Wiener process for Thermostat # 9        1 F T T   1.0331244080464512E+00        3784506675.0        1914172684.0        3527875272.0        1610827989.0        3855196701.0        1117597481.0        3777646647.0        1837464056.0        4204654757.0         664239048.0        4190510072.0        2959195122.0        3777646647.0        1837464056.0        4204654757.0         664239048.0        4190510072.0        2959195122.0
Wiener process for Thermostat # 10       1 F T T   2.1466585360569199E-01        3057685686.0        2869029583.0         411221469.0        2821893460.0         322924656.0        1143227575.0        4215590817.0        3862461878.0        1087200967.0        1544910132.0         936383720.0        1611370123.0        4215590817.0        3862461878.0        1087200967.0        1544910132.0         936383720.0        1611370123.0
Wiener process for Thermostat # 11       1 F T T  -4.4132046785776799E-02        1554543736.0        2717576499.0        4135075403.0        2618383353.0         642871762.0         249586537.0        1683636369.0         362165168.0         814316280.0         869382050.0         980203903.0        2062101717.0        1683636369.0         362165168.0         814316280.0         869382050.0         980203903.0        2062101717.0
Wiener process for Thermostat # 12       1 F T T  -5.6161533877704317E-01        1770324141.0        3770017049.0         190859559.0         764828178.0        2918138424.0         736540625.0         272317999.0         166758548.0         310112982.0         201045826.0        1680231254.0         118290799.0         272317999.0         166758548.0         310112982.0         201045826.0        1680231254.0         118290799.0
Wiener process for Thermostat # 13       1 F T T   9.7554409384929153E-01        3627045108.0        1898589428.0        2752141753.0          85759421.0        2499273175.0        1137986601.0        2245755202.0        1652682525.0        2865544364.0         721509566.0         209733568.0         592362218.0        2245755202.0        1652682525.0        2865544364.0         721509566.0         209733568.0         592362218.0