 # Version information for this restart file 
 # current date 2023-12-06 14:57:13.837
 # current working dir /scratch/work/courses/CHEM-GA-2671-2023fa/students/tje3676/comp-lab-class/Week12/Runs/Proton
 # Program compiled at                              Sat Dec 12 18:27:15 EST 2020
 # Program compiled on                                         cs001.nyu.cluster
 # Program compiled for                                                nyu-intel
 # Source code revision number                                       git:8c64c6e
 &GLOBAL
   PRINT_LEVEL  LOW
   PROJECT_NAME proton_aimd_1ps_every0.5fs
   RUN_TYPE  MD
   WALLTIME 21600
 &END GLOBAL
 &MOTION
   &GEO_OPT
     OPTIMIZER  BFGS
     MAX_ITER  100
     MAX_DR     3.0000000000000001E-03
     &BFGS
     &END BFGS
   &END GEO_OPT
   &MD
     ENSEMBLE  NVT
     STEPS  2000
     TIMESTEP     4.9999999999999994E-01
     STEP_START_VAL  1997
     TIME_START_VAL     9.9849999999998249E+02
     ECONS_START_VAL    -1.1027786089125343E+03
     TEMPERATURE     3.0000000000000000E+02
     &THERMOSTAT
       TYPE  GLE
       REGION  MASSIVE
       &GLE
         NDIM  5
         A_SCALE     1.0000000000000000E+00
         A_LIST     1.8595758612559999E+02    2.7263853498399998E-01    1.1526100454610001E+01   -3.6414578262600003E+01 \
             2.3173375816020001E+02
         A_LIST    -2.7809524712060002E-01    8.5951591808710006E-05    7.2189048017650004E-01   -1.9844539343859999E-01 \
             4.2409257583420001E-01
         A_LIST    -1.4825808131210000E+01   -7.2189048017650004E-01    1.3590902121280000E+00    5.1498896280349999E+00 \
            -9.9949268450990001E+00
         A_LIST    -1.0372189126880000E+01    1.9844539343859999E-01   -5.1498896280349999E+00    2.6661910891169999E+01 \
             1.1507715495310000E+01
         A_LIST     2.1801346360420001E+02   -4.2409257583420001E-01    9.9949268450990001E+00   -1.1507715495310000E+01 \
             3.0958394565589998E+02
         &THERMOSTAT_ENERGY
               2.5832875297035194E-03
              -1.3756756492805649E-05
              -1.1102509515475542E-03
              -1.2971708652594368E-03
              -9.9634961405338056E-03
               2.2089286933118677E-03
              -2.9275494263899539E-03
              -3.1105484407828450E-03
               5.5833159289123179E-03
               3.7374455865336054E-03
               9.4876436364666940E-03
               3.8421237832794936E-04
               3.5032799776132705E-03
              -1.0369806921753216E-02
               4.4171740202853882E-03
              -1.0809277438253094E-02
               4.1485245971523976E-03
              -4.6837707862277438E-03
               9.5105427123794053E-04
              -2.4252029785472242E-04
               1.6270959800612217E-03
               1.4867521400840201E-02
              -1.0456644724289572E-02
              -1.0347650362463993E-02
              -4.9636513724315495E-03
               1.1764164696371063E-03
               1.7083329124559401E-03
              -2.8327477057426237E-03
              -1.6064705463778688E-03
               6.8706637319311641E-03
              -5.6261724311504162E-03
              -1.1304791079707779E-03
               8.7486165853989020E-03
               1.8104193519508974E-03
              -1.3042831982898106E-03
               1.0896490927007701E-02
               1.9837132116215547E-03
              -4.8968861692395005E-03
              -3.1595126377544894E-04
              -1.9439996489730778E-03
               6.9018459338121771E-03
              -1.1625752348857548E-02
               4.5106374607018947E-03
               6.5638833202259677E-03
              -1.3800905204836363E-03
               5.3867784398282242E-03
              -9.5137163622645467E-03
               2.2064461771256062E-03
               3.4223190923965696E-03
               3.7344394294856645E-03
               1.1380225268605368E-03
               1.4725874294268177E-03
              -8.9523206839285090E-03
              -4.6665383538138407E-03
              -5.5244936580552432E-03
               5.9377580538102061E-04
              -1.2511687639105912E-03
              -3.7405779327522037E-03
               2.9535108567944335E-03
               1.0035604651771675E-03
              -7.7675800112682748E-04
              -1.2268562848574102E-04
               1.4576348473909340E-02
              -4.1877809156092918E-03
               8.7263116215922278E-03
               5.9660095429481677E-03
              -1.3752092792170421E-03
               5.0698496419160069E-03
               6.9925805676264285E-03
              -7.5062272081385132E-03
              -6.1743274830090775E-03
              -5.6903726074526142E-03
              -6.5211261298925389E-03
              -4.0624551568252789E-04
              -4.5796610368623444E-03
              -1.1719913040330340E-02
               6.2648948850016197E-03
               1.1676806876949602E-04
               7.0233767895872667E-03
               4.6469136311115821E-04
               5.4434530373002306E-03
              -4.2308033648037835E-03
               2.5611039534787603E-03
               1.8827444093004895E-03
               2.5430658498100385E-03
               6.0438453237421225E-03
              -1.0325618566386476E-03
               6.1000646776522820E-05
               5.2955052583056306E-04
              -7.8250693650223496E-03
               4.0413840809771567E-03
              -8.4935951640303393E-03
               2.0688781553110445E-03
              -4.2149607645083657E-03
              -4.9447790784832406E-03
               1.0961783495237387E-02
               9.3544471091499713E-04
               4.2753063763696243E-03
               4.7596349109092426E-03
               3.9520558734835965E-03
              -1.3891255931099936E-03
              -5.4167430380288178E-03
               3.9938495865264054E-03
               2.4422139978495263E-04
              -1.1697929458241985E-03
               8.5777922466377110E-03
               7.9933640178257923E-03
              -4.5418584072324216E-03
               6.8919443921827321E-03
              -1.2787194737538235E-03
               8.5325613198445423E-04
               8.1467742782363340E-03
              -5.5927347584421487E-03
               1.4829767514982209E-02
              -1.9071117081289569E-03
              -4.2929420730514146E-04
               1.8788065706416991E-03
               4.3836840302848082E-03
               1.0123896095389417E-03
               4.0843956214406969E-03
              -8.1272439162438318E-03
               4.9704206111320674E-03
               9.2642955381757614E-03
              -3.4616343668723180E-03
              -6.0184550734711300E-03
              -7.1633840402930849E-03
               4.7508234227503915E-03
              -4.6364185597255548E-03
               9.8713394975996800E-03
              -8.2612880617570009E-03
              -6.3914802038576735E-03
               1.1650333981321002E-02
               9.3865010374177111E-04
               8.9072041136873652E-03
              -8.8506016730240003E-04
               5.2159474099269972E-03
              -4.2445203890616257E-03
              -1.2401421692987925E-02
               7.3233552732528541E-04
              -4.8203206464093543E-03
               4.7043580169115083E-03
               8.5804825146195696E-03
               1.3600983399564926E-03
              -1.2443334233338777E-03
              -5.1259018721461456E-03
              -2.4803674787820780E-03
               1.2285611485399641E-02
              -4.2149933872078437E-04
               7.3449545926423205E-04
               1.8941395592894481E-03
              -2.0615620367153271E-02
               1.1748546654108382E-02
              -1.3597497597465796E-03
               1.5401381865610346E-04
               5.8866425145500624E-03
              -2.2364327783102023E-03
               3.5727141261693413E-03
               1.0471381957848150E-03
              -7.3566938891636569E-03
               4.6330433302527417E-03
               1.0193393399339002E-03
              -6.0517648180715361E-03
              -6.1820182658299874E-03
               2.1740027181026047E-03
               1.3438180518214951E-02
               7.5434406237317514E-03
               8.3713634509953554E-03
              -1.6065550845604338E-02
               2.0295392685046824E-03
               2.6105641282260514E-03
              -3.4905533770440500E-03
               1.5348127166233559E-03
              -2.5248631553345313E-03
              -5.5432738694951638E-03
               3.4894099597389289E-02
              -1.2331226761509826E-02
               5.6743635235327336E-03
              -2.3501745666264537E-03
               9.6512507583286656E-03
              -1.4684822296373229E-03
               8.8247250100673344E-03
              -2.7186779394624116E-03
               3.9812794075826559E-02
              -4.2434895101597751E-03
              -5.1507778535646114E-04
              -4.7766113862121834E-04
               7.2395977508283521E-03
               3.3409713001862854E-03
              -1.1185544953796391E-02
              -2.5381198484172676E-03
               2.8470521357533475E-03
               5.2989302165162662E-03
               2.9779256968444170E-03
              -3.7600067380393512E-03
               1.8628720788460217E-03
               9.2683321932769108E-03
              -3.6302028109201170E-03
              -6.9243962086569209E-03
              -8.2109316856965250E-03
               3.9892349651980121E-03
               1.2800024968349036E-03
               5.9354951468626269E-03
               6.6756850574863839E-04
               7.8392880792727323E-03
              -1.1428580771388735E-02
              -1.0062810183180192E-02
               3.7238063409890253E-03
               4.5786933850422056E-03
              -5.0815289762349610E-03
               3.9796089843709241E-03
               1.1826474302704278E-04
               1.9964806714100431E-04
               3.4699185714728688E-03
               3.5390355097578512E-03
              -5.2236709566299703E-03
               5.7678398729166845E-03
              -7.5294428647045561E-03
               1.2898692036244266E-02
              -7.0514591053925527E-03
               5.2234987369556155E-03
               8.4840370303845023E-04
              -2.4431299202450759E-03
              -1.6715932618520161E-02
               1.1502372042407326E-02
               8.0334275523775180E-03
              -1.2208120061931721E-02
              -1.2085555747214510E-03
               2.0544305851012694E-03
               2.8712988531458604E-03
               2.0391010812755360E-03
              -5.4762104085631898E-03
               7.8979214012382475E-04
               1.2086891774025289E-02
              -2.9893017866324624E-04
              -6.2336288007964395E-04
              -5.3755009869168790E-03
               2.8888208751910939E-03
               9.1101591078775754E-04
              -3.7763779759016552E-04
              -3.3866649503299980E-03
               4.2781880941174643E-03
               1.0511341379975080E-02
              -3.3574347622907609E-04
              -3.6394817696468770E-03
              -8.5204378900058855E-03
               4.9482144318007985E-03
              -1.4046310040357823E-03
               2.0331864431492423E-03
              -4.4713693449011608E-03
              -5.2430320948439607E-03
               1.1681143695433023E-02
              -5.3926477505605785E-03
              -9.6611376955986605E-03
              -5.0256710580249509E-03
               2.0470625198335092E-03
              -4.4284978806627389E-03
              -2.5900289293550637E-03
              -5.2965849588147425E-04
               9.0246882501955118E-04
              -3.0764623538545809E-03
               7.0984923444399380E-03
               7.9561974198346114E-03
               2.3848884980223421E-03
              -7.1940149043478356E-03
               6.6401228366441229E-03
              -7.7903277281206832E-03
              -1.0896251150570202E-03
               8.7049080408382832E-03
              -1.4700076274942167E-04
               5.0888706004058150E-03
               5.0357117092837281E-03
              -1.4719807716879108E-02
               1.4431750689709057E-02
               4.9658881662475174E-03
               1.9957579806785873E-03
               1.5574419337510863E-03
              -1.9002385916890178E-02
               1.2842771309201816E-02
               4.4415806049312640E-04
               1.0147029650170104E-02
              -1.5604018081952019E-02
              -7.2598454739220266E-03
              -3.9402456568241448E-03
               7.9192340853397394E-03
              -4.9308305613323528E-03
              -5.8590633655800630E-03
               1.1531314055937747E-02
              -2.7375292249849805E-04
              -1.0101778713458239E-02
               6.6968566195104991E-04
               1.3337336475326152E-02
              -1.4675998202301919E-03
              -5.1838837115398741E-03
              -1.0427207421153774E-02
               5.8918588752826188E-03
               5.9609989601297876E-03
              -6.3390881425908537E-03
               1.9476494514568506E-02
               4.6292895231651353E-03
              -8.7497541508789918E-03
              -1.0640183840507147E-03
              -4.6466549339444253E-03
               3.7187857892104674E-03
               1.8429889838618967E-02
               7.7966289854999775E-03
              -6.7661426994732191E-03
               1.8914448780214727E-03
               9.8532142254191130E-03
              -2.8258007030346362E-04
               7.7885767551288910E-03
               1.6987889311685779E-03
              -2.3336233436833192E-03
               2.4818098582004202E-03
               6.0671137397247756E-05
              -4.4282846512641505E-03
               5.7147869312044550E-03
              -4.3022586729339748E-04
              -4.8014228801614911E-03
              -1.5405420477944999E-02
              -7.5179221997537585E-03
               1.6879138261037992E-03
               8.0164178121117976E-03
               6.9358979480666451E-03
               7.2825000054161934E-03
              -7.6320117393913877E-03
               2.1499843010871867E-02
               1.1784499356562348E-03
               2.5051857884556832E-03
              -6.7813839453045182E-04
               6.7125273928752126E-03
              -1.6051511014101221E-02
               4.2920715908419654E-03
               3.7044577369989280E-03
              -3.6327525456264298E-03
               7.9424846282752527E-03
              -6.1136008003571810E-03
               5.1066633700196909E-04
               2.5244914583550391E-03
               5.8751217423408351E-03
              -4.9677302933498870E-04
              -1.2538841863453547E-02
              -1.9175729090373599E-03
               7.7487085115550084E-03
               2.7065762309598064E-03
               3.0168037654176531E-03
               8.0463456380200672E-03
               5.4000374945581547E-03
              -1.3531011199674838E-02
               1.4515596990021518E-02
              -3.3758990796902348E-03
              -2.5092421251594558E-03
               3.9542255468623484E-03
              -1.1887054028849675E-02
               5.2317621812603028E-03
              -6.6436952278152534E-03
              -4.3586897682718400E-03
               4.2178103500343398E-03
              -2.1150513305612704E-03
              -1.2530510663492769E-02
               5.7138235355211819E-03
               2.0627526809664188E-03
              -5.5091670672620177E-03
               1.9341779951387583E-02
               2.6571714272691383E-03
              -3.2203587006232443E-03
              -9.7242806889400162E-04
               1.4221574719005528E-02
              -7.8895756653703380E-05
              -1.0792231600522915E-02
              -5.7761432943076807E-03
              -1.9670466347368131E-03
               8.4573903106155302E-03
               5.8758010815027062E-04
              -6.9769335545021092E-04
               3.0428641220381566E-03
               6.3092305804416720E-03
              -1.2627841427760061E-02
              -1.7186552558824456E-02
               1.7753129195326903E-03
               1.1567328424957495E-02
               4.3634291728097000E-03
               7.3145793809180877E-03
              -4.3191485544241751E-03
              -1.2559920763274000E-04
              -1.2060397082587214E-02
              -1.7084108157392709E-03
               4.8705712861613817E-03
               1.2514618872742011E-03
              -5.5871095726423214E-03
               6.2233515801312237E-03
              -6.2563312852105431E-03
               6.3419364672830545E-03
               3.6681774763505285E-04
              -6.2730488569817918E-03
               1.2203026824082889E-02
              -8.2235174086519322E-04
               5.0970504336618023E-03
              -7.3906080940442575E-03
              -2.1706785155554851E-03
               1.4982557651666183E-04
               2.2190154569295606E-03
               3.7330390870668698E-03
              -1.2209640931948396E-03
               7.3662499272860100E-04
               2.8341371524324274E-03
              -9.3422068839803894E-03
              -3.4859668297361449E-03
               6.2822794859703291E-03
              -1.4923603193054645E-03
               8.4566785317441266E-04
               4.7766038698413647E-03
              -7.3734715290422169E-04
              -3.8147137158834046E-03
               3.2994964629474099E-03
               7.3287348572946389E-03
               6.7864736399994010E-04
              -1.0383584964480368E-03
               1.6623182624235756E-03
              -7.1796123763568146E-04
               1.4225325485635548E-03
              -2.8848094429959601E-03
               8.4546410842770824E-03
              -3.2223646419772571E-03
              -1.0727647814709791E-02
               8.9801036824665691E-03
              -8.1589713628498432E-03
              -1.1258865137213471E-03
              -6.8179172675674011E-03
               2.6984685185065397E-03
              -4.7386725731535869E-04
              -3.6419754666736984E-03
              -2.6868070317600619E-03
              -1.7056595167718566E-02
               1.7384196478060207E-02
               1.3251931993448497E-02
               3.3428291493103803E-03
              -6.7611574597467358E-03
              -2.8974127587311298E-03
              -7.8311690049402954E-03
              -6.1742501324758498E-03
               7.7524319077800800E-03
               6.3350352062908769E-05
              -3.3233597985932129E-03
               5.1947503980530867E-03
               6.7709035520752917E-04
               6.2946916508891931E-03
               1.2227721114209235E-03
               5.5588011795529111E-03
               1.0994788153069717E-02
              -1.1569793204086029E-02
               1.3996831847220821E-03
              -9.0222718294699564E-03
               1.8106816372088805E-03
              -2.0003007366696649E-03
               3.7579699734053389E-03
              -4.7808649225599244E-03
              -1.5292135187199738E-02
              -1.8408786857251565E-02
               5.6794030133958135E-03
              -3.7237994261588863E-03
               1.7714891196186158E-02
               1.0432718517278320E-02
              -9.3711713811326751E-03
               3.4464077245182278E-03
               1.4044070174700357E-03
              -1.0799375630273938E-03
              -7.2830499367113020E-03
               1.3565791232367597E-03
               9.5387826179653846E-03
              -4.6065930174907658E-03
              -5.1315125744443232E-03
              -7.1201680005934234E-03
               2.0661458931140828E-03
              -7.6397759592762235E-04
              -3.1712330494589329E-03
               7.0744615893762325E-03
              -4.3979088681227158E-04
               2.1979813946074213E-03
               7.1623581380455550E-04
              -1.9599613213439012E-03
               1.1689776110300704E-04
              -1.9244452566057164E-03
               6.5474721442054422E-03
               7.6745496633612627E-03
              -1.4884394579703533E-03
              -3.8424557676242834E-03
              -1.6734440362445111E-03
               2.3662199884964636E-03
               2.5099321809162068E-03
              -1.8101888721516312E-03
               7.0203376611409915E-03
               3.4054018927931113E-03
               1.3597537576122474E-02
              -9.7682841967443312E-03
              -4.0797894108629161E-03
              -4.0552720327096553E-04
               3.0579631389603375E-03
              -6.6806735329774901E-03
               7.8950648864844954E-03
               7.4704421803764636E-03
              -1.1543503041129457E-03
               6.4951417463834007E-03
              -1.8002208165822459E-02
               1.4329359897607714E-02
               2.7141743267635695E-03
              -1.2690403744990510E-02
              -4.5328454701525451E-03
               1.9590882306113663E-03
               9.6730765044253132E-03
               6.4845371257851005E-03
              -4.1774777811799009E-03
               6.5135335223499135E-03
              -2.5664665918778587E-03
              -8.9129623142542719E-03
               1.3231413558502721E-02
              -1.3342479336967321E-02
              -3.5605314848145848E-03
               1.8348579999035389E-03
               4.2360138990285923E-03
               1.5889036434321425E-04
              -2.1262716115820479E-02
               4.4410678883662060E-03
               1.3066771456587122E-02
              -9.3136412004516593E-04
               1.7146346861835954E-03
               2.6358309000056590E-03
              -2.3139184481581906E-03
              -3.6278598561183995E-03
               6.3663461859882909E-03
              -7.3030424051060794E-04
               2.9456852091019193E-03
               9.1010358748431670E-03
              -1.6994961468252783E-02
              -3.7592415683681238E-03
               6.7801629166370338E-03
               5.5066499290209103E-04
               7.5767110257225182E-04
              -3.1411705850943958E-04
               3.2631084011780485E-03
               4.5630425871330989E-03
               2.2542526451914614E-03
              -1.0669169221790070E-03
              -6.8675622980692739E-03
               9.6246102181733913E-04
               2.4918033835267181E-03
              -6.5797331933244900E-03
               8.3691762837830204E-03
              -3.5272163649705600E-03
               3.1786135172776745E-03
              -5.3349851591222340E-03
              -5.2447910497447200E-03
              -3.4073639272779645E-03
              -1.7004031319201198E-04
              -3.5155332179790453E-03
              -3.3616237807996049E-03
              -1.8789076843440610E-03
              -7.8747563624904458E-03
               4.5875716527464345E-03
               1.3195594226580405E-02
              -1.5179343741857343E-03
               9.8363658081023560E-04
               5.8440615826367186E-03
              -1.4238575626185476E-03
               5.3413350675018435E-03
              -6.1936402560199076E-04
              -5.7443229429954574E-03
              -1.4365895073500071E-03
              -6.0156451170995237E-03
               4.5688238030242925E-03
               2.2867871537574980E-04
              -4.8864873365857464E-03
               2.1179404749930080E-03
               7.1989025527169901E-04
              -6.5296086593107693E-03
              -2.7693967867265380E-03
               1.6464686905842078E-02
               1.7904556591494623E-02
               3.6405616651322618E-03
              -2.7877855981415225E-03
         &END THERMOSTAT_ENERGY
         &RNG_INIT
Wiener process for Thermostat # 1        1 F T T   3.7280401166127353E-01        2396824340.0        1285798124.0        1970812289.0        4262378425.0        2500496477.0        3105761546.0             12345.0             12345.0             12345.0             12345.0             12345.0             12345.0             12345.0             12345.0             12345.0             12345.0             12345.0             12345.0
Wiener process for Thermostat # 2        1 F T T  -2.8031459711754392E-01        1517340215.0         764337745.0        1777988352.0        1272471177.0        3093987526.0        2495380513.0        3692455944.0        1366884236.0        2968912127.0         335948734.0        4161675175.0         475798818.0        3692455944.0        1366884236.0        2968912127.0         335948734.0        4161675175.0         475798818.0
Wiener process for Thermostat # 3        1 F T T   7.0414863813957229E-01        1874984675.0        3540139467.0        3102430019.0        1608426380.0         643336117.0        1230365417.0        1015873554.0        1310354410.0        2249465273.0         994084013.0        2912484720.0        3876682925.0        1015873554.0        1310354410.0        2249465273.0         994084013.0        2912484720.0        3876682925.0
Wiener process for Thermostat # 4        1 F T T   2.2606224243119818E-01        3416187057.0        1637601412.0         393440280.0        2948182120.0        3407482107.0        2343296956.0        2338701263.0        1119171942.0        2570676563.0         317077452.0        3194180850.0         618832124.0        2338701263.0        1119171942.0        2570676563.0         317077452.0        3194180850.0         618832124.0
Wiener process for Thermostat # 5        1 F T T  -1.0267294306732384E+00         315072143.0        4137263975.0        4196656129.0        1282237791.0        3639735469.0        1937530485.0        1597262096.0        3906379055.0        3312112953.0        1016013135.0        4099474108.0         275305423.0        1597262096.0        3906379055.0        3312112953.0        1016013135.0        4099474108.0         275305423.0
Wiener process for Thermostat # 6        1 F T T   9.2624835653208748E-01        3222219212.0        3105331301.0        2094058484.0        2511776071.0        3719186732.0        3505559269.0          97147054.0        3131372450.0         829345164.0        3691032523.0        3006063034.0        4259826321.0          97147054.0        3131372450.0         829345164.0        3691032523.0        3006063034.0        4259826321.0
Wiener process for Thermostat # 7        1 F T T  -4.6721006089689310E-01        2921304001.0        3534845789.0         764942181.0        2980414860.0        2807768180.0         274774080.0         796079799.0        2105258207.0         955365076.0        2923159030.0        4116632677.0        3067683584.0         796079799.0        2105258207.0         955365076.0        2923159030.0        4116632677.0        3067683584.0
Wiener process for Thermostat # 8        1 F T T   4.8809173354813140E-01        3327178806.0        3682317356.0        2663069382.0         319044460.0        3975670735.0         562702070.0        3281794178.0        2616230133.0        1457051261.0        2762791137.0        2480527362.0        2282316169.0        3281794178.0        2616230133.0        1457051261.0        2762791137.0        2480527362.0        2282316169.0
Wiener process for Thermostat # 9        1 F T T  -8.1805399140306756E-01         433221438.0         349071730.0        2033385903.0        2639944804.0        3988392127.0        3801627598.0        3777646647.0        1837464056.0        4204654757.0         664239048.0        4190510072.0        2959195122.0        3777646647.0        1837464056.0        4204654757.0         664239048.0        4190510072.0        2959195122.0
Wiener process for Thermostat # 10       1 F T T  -2.7062828385550008E-01        2290601073.0        1666814614.0        3289919364.0        2930088785.0        1500929831.0        1860303943.0        4215590817.0        3862461878.0        1087200967.0        1544910132.0         936383720.0        1611370123.0        4215590817.0        3862461878.0        1087200967.0        1544910132.0         936383720.0        1611370123.0
Wiener process for Thermostat # 11       1 F T T   6.8652417552969780E-01        2151060734.0         580174056.0        1748210725.0         399674445.0        1879492130.0        2741776977.0        1683636369.0         362165168.0         814316280.0         869382050.0         980203903.0        2062101717.0        1683636369.0         362165168.0         814316280.0         869382050.0         980203903.0        2062101717.0
Wiener process for Thermostat # 12       1 F T T   1.2985463821691814E+00        3478492904.0        1830493925.0          17364685.0        2058676739.0        2676153401.0        4087350495.0         272317999.0         166758548.0         310112982.0         201045826.0        1680231254.0         118290799.0         272317999.0         166758548.0         310112982.0         201045826.0        1680231254.0         118290799.0
Wiener process for Thermostat # 13       1 F T T   2.0061703114922356E+00        2097018817.0        1300727704.0         367347443.0         582130443.0        2824054692.0        3111690587.0        2245755202.0        1652682525.0        2865544364.0         721509566.0         209733568.0         592362218.0        2245755202.0        1652682525.0        2865544364.0         721509566.0         209733568.0         592362218.0