 # Version information for this restart file 
 # current date 2023-12-06 11:02:54.051
 # current working dir /scratch/work/courses/CHEM-GA-2671-2023fa/students/tje3676/comp-lab-class/Week12/Runs/Proton
 # Program compiled at                              Sat Dec 12 18:27:15 EST 2020
 # Program compiled on                                         cs001.nyu.cluster
 # Program compiled for                                                nyu-intel
 # Source code revision number                                       git:8c64c6e
 &GLOBAL
   PRINT_LEVEL  LOW
   PROJECT_NAME proton_aimd_1ps_every0.5fs
   RUN_TYPE  MD
   WALLTIME 21600
 &END GLOBAL
 &MOTION
   &GEO_OPT
     OPTIMIZER  BFGS
     MAX_ITER  100
     MAX_DR     3.0000000000000001E-03
     &BFGS
     &END BFGS
   &END GEO_OPT
   &MD
     ENSEMBLE  NVT
     STEPS  2000
     TIMESTEP     4.9999999999999994E-01
     STEP_START_VAL  500
     TIME_START_VAL     2.4999999999999795E+02
     ECONS_START_VAL    -1.1027786089125343E+03
     TEMPERATURE     3.0000000000000000E+02
     &THERMOSTAT
       TYPE  GLE
       REGION  MASSIVE
       &GLE
         NDIM  5
         A_SCALE     1.0000000000000000E+00
         A_LIST     1.8595758612559999E+02    2.7263853498399998E-01    1.1526100454610001E+01   -3.6414578262600003E+01 \
             2.3173375816020001E+02
         A_LIST    -2.7809524712060002E-01    8.5951591808710006E-05    7.2189048017650004E-01   -1.9844539343859999E-01 \
             4.2409257583420001E-01
         A_LIST    -1.4825808131210000E+01   -7.2189048017650004E-01    1.3590902121280000E+00    5.1498896280349999E+00 \
            -9.9949268450990001E+00
         A_LIST    -1.0372189126880000E+01    1.9844539343859999E-01   -5.1498896280349999E+00    2.6661910891169999E+01 \
             1.1507715495310000E+01
         A_LIST     2.1801346360420001E+02   -4.2409257583420001E-01    9.9949268450990001E+00   -1.1507715495310000E+01 \
             3.0958394565589998E+02
         &THERMOSTAT_ENERGY
              -2.9622475643736358E-03
              -1.3864942539210893E-04
              -6.0988861815557517E-04
               7.5553510819945818E-04
              -6.6278401135942897E-03
               5.3355688705983089E-04
              -3.0551665570308912E-03
              -2.5423390510466758E-03
               8.7884417566146626E-03
               2.3595852593689664E-03
               6.0354897034635598E-03
              -2.4925608495932491E-03
               3.0264012833836874E-03
              -1.0372927728581672E-03
              -3.7337624283565688E-04
              -3.3485861843167751E-03
               2.3785550954768119E-03
              -2.7621889978551254E-03
               4.3160911337650695E-03
              -5.4399365401890532E-04
               2.6967791099661025E-03
              -2.7057461559792505E-03
              -1.0187936682133280E-03
               1.3381306911793927E-03
              -4.1467774359742098E-03
              -7.4819708909346604E-04
              -2.6605522297215366E-03
               4.2559767705078874E-03
               7.4858138839581129E-05
              -1.2482053530634530E-04
              -5.3384756903544460E-03
               3.9383311034172286E-03
               5.9893474908470773E-03
               1.5894456170557558E-04
              -2.3693776868114647E-03
               5.0786007254889137E-03
              -6.9183530893770248E-04
              -2.1678836917504458E-04
               1.1674840446312469E-03
              -4.9587660272890051E-03
               3.7884004637323029E-03
               6.4885380484352041E-04
               3.4938963805586200E-03
               4.0464454376520466E-03
              -8.4320939011762342E-03
               4.9497611233270521E-03
              -2.7894972019606862E-03
               6.9721572575246111E-04
              -5.2179193374538571E-03
               1.7922821443353536E-03
               2.0192251933859946E-04
              -3.0312572975806267E-03
               2.6353077554233575E-04
               9.3854240050249228E-04
              -5.1624386682923556E-03
               3.6338731096837939E-03
               3.9092115365392229E-04
              -3.7165427046314083E-04
               1.4862093096028068E-03
               4.4490061321506430E-03
              -2.4099841351719969E-03
               1.6332762114415048E-03
               3.8666522001506651E-03
               8.6672081186437127E-04
               4.8592926018715401E-04
               1.9878665352041141E-03
              -1.0514744098793247E-03
               3.7460868874309200E-03
               3.8510030575512099E-03
              -1.4448309843967575E-03
              -1.4796222046383730E-03
              -1.2664865528686346E-03
              -1.7973585675704474E-03
               1.7176890633994739E-03
              -3.3931486466723892E-03
              -4.4863048207845879E-03
               4.3913449176885746E-03
               1.7372175518654820E-04
               5.9908118764502288E-03
               1.2561397018827714E-03
              -3.7125151108100261E-03
              -1.4527504839995352E-03
               1.8705115564433962E-03
              -5.0099789376887487E-04
               2.5651102488100435E-03
               1.9195482137611653E-03
              -4.6783563794352565E-03
               3.3112080325339603E-03
               2.2543317837035149E-03
              -5.8122392194992047E-03
               6.2562257912975299E-03
              -5.4178619429718295E-03
               2.3704573850702581E-03
               4.1303037239685059E-03
              -4.6829381132230318E-03
               8.5423665119882669E-03
               3.7317626246773832E-03
               2.1241455477016679E-03
               2.4628823814709152E-03
               5.3932733417505086E-03
               1.1286589661043008E-03
              -3.8269480351025582E-03
              -1.6886349596818664E-03
              -1.4202669767333404E-03
               2.5963817581677274E-03
              -1.1473576282353911E-03
               3.3458268942332925E-03
               1.0431538034393979E-03
               6.0660935276793072E-03
              -1.2382366850976101E-03
               3.0894980276808238E-03
              -3.4212166432966715E-04
               3.0231066606282346E-03
               1.7469852488963991E-03
               2.0206879217424998E-03
               4.7815941455846321E-03
              -7.1960226729052114E-03
               2.8111965014472567E-03
              -4.4187613202422704E-03
              -6.8538771420541158E-04
              -5.1932763511200620E-03
               3.6529043534981550E-03
               6.6510588020702102E-03
               1.4013377443514556E-03
              -7.8414816059701915E-03
              -2.4177625703842021E-03
               8.4058205106363171E-04
               6.7777706005236549E-04
               3.4372163748420644E-03
               2.0548715953794478E-03
              -4.8555911843143921E-03
               4.1963600292812672E-03
               3.0872176523312608E-03
               4.1714174437907075E-04
              -2.5206975864654111E-03
               1.4462727908684892E-03
              -3.2173966308260082E-03
              -4.1336366550069582E-04
              -3.8387796655356778E-05
              -6.2692741517838754E-03
               7.0207841271275277E-03
               4.2089537606845757E-03
               1.7836274429021690E-03
               6.8256110926231018E-04
               4.9404760199296379E-04
              -5.8906319629516417E-04
               4.9989915582893786E-03
              -2.6106092174994254E-03
              -9.9199127351475513E-04
               7.4865785884814144E-03
              -7.4802649520909698E-03
               3.2700961525861848E-04
               3.4546354668678618E-04
               5.7108588050592884E-04
               3.4331538942106957E-04
              -2.7764382531349084E-03
               2.0040657116085002E-03
              -3.4798770463178902E-03
              -3.3041442629272787E-03
               5.1534823599520743E-03
              -4.2898416040582131E-03
               1.4038399398160996E-03
              -2.5098670824276969E-04
              -1.2817754133822696E-03
               3.9246198739090344E-03
               7.3057798192796381E-03
               3.1321658110838374E-03
              -8.1971534441879143E-03
              -4.4743647536460221E-03
               3.6189937720062931E-03
               4.1577437449996722E-04
               6.2726760827913584E-03
              -6.1385864985093354E-05
              -3.5429242825844838E-03
               3.0695865167057045E-02
              -3.6474823160382655E-03
               5.3051042986854771E-03
              -2.8666027463829088E-03
               3.6989828450696349E-03
              -2.5801610508429120E-03
               8.0518324368071461E-03
               3.7150201540511528E-03
               1.9886329637623875E-02
              -5.8632644494374317E-03
               4.0473315393290939E-04
              -6.0823964375634326E-04
               5.0925809169900310E-03
              -4.6844887767531354E-03
              -2.7548389029636877E-03
              -2.7289653823867810E-03
              -1.9411020259597219E-04
               1.8713987526961836E-03
              -2.7573238233707833E-03
              -5.0592805073293627E-03
               1.9371279721316114E-03
               2.4091319960361586E-03
              -4.5291314696750641E-03
               3.9693152400174347E-04
               1.4217772888983635E-04
               4.9445036821988159E-03
               1.3932443595636012E-03
               3.0208219410715223E-03
               2.1617247126967196E-03
               3.4323041869926893E-03
              -6.2495260706831061E-03
              -5.8568267905803389E-03
               3.4092423204000444E-03
               5.8044425908265491E-04
              -9.7644424406459433E-03
               8.8917480698403693E-03
              -8.1378544813614432E-04
               1.8673826209341992E-04
               6.1483457340710942E-03
               4.4331625530305016E-03
              -7.8746522068276689E-03
               7.0597695673490024E-03
              -2.4447779904597385E-03
               3.5342939541931052E-04
              -3.3254333275627270E-03
               4.5219649687260467E-04
              -1.7403683254250187E-03
              -4.7184005225578258E-05
              -1.7358180749465191E-03
               2.0385977658509281E-04
              -2.4995416530124996E-03
               1.4147819467307901E-04
               9.2345408552970570E-04
              -9.4852463179833117E-05
              -2.7175891329234395E-03
              -8.7479544930269340E-04
              -2.3706540036632379E-03
               5.4503809340650184E-03
               5.4656775805470570E-03
              -2.2460010908289937E-03
              -1.2904707405617759E-03
               8.0985087659804099E-04
              -3.6270120434741971E-03
               2.4944472281476790E-03
               8.6592656420311190E-04
               4.6546565185978726E-04
              -2.2481098582635786E-03
               1.8129306411778757E-03
               1.1231688769159536E-03
              -7.2751947379966360E-04
              -4.2254398159595327E-03
              -1.8077181715335225E-03
               2.1450376106683488E-04
              -3.2480348328411909E-03
              -5.4519270683258859E-05
              -3.8014233804561973E-03
              -4.7906448500840639E-04
               1.9053043203463142E-03
              -3.9745299044505779E-03
              -1.3445964266051069E-03
               5.9206046237279967E-03
              -2.1099520414738907E-03
              -7.2970413885970050E-04
              -1.0483105180169171E-03
               2.7259597791491066E-04
              -2.3507859839969141E-03
               2.8188826088962880E-03
               3.6855063772320232E-03
               3.6652440978343962E-03
              -2.6577434587150421E-04
               2.7245831732032374E-03
              -1.8485869537659232E-03
              -3.0809064792209624E-03
               3.3291937755245095E-03
              -4.9236752468198074E-03
               3.9048204575979685E-03
               1.4001916777262305E-03
              -7.2307515768427312E-03
               3.5505452593560154E-03
              -4.2338260083858736E-04
              -2.9041844385615449E-03
              -2.2305272527008337E-03
              -2.5415876989605514E-03
               7.3390120409132327E-03
              -2.2271043008648865E-05
               6.7319205887424530E-04
              -4.2737548946313745E-03
              -4.8920306084747163E-03
               9.8241138980003934E-05
               3.3877687117401323E-03
               2.0487107823773561E-03
               2.3124484927217073E-04
               6.4629978110587174E-03
              -5.7770995239904126E-03
              -3.8337564662157381E-04
              -1.5771258519253514E-03
               4.3361785258179122E-03
              -1.1863206131218138E-04
               2.0395926343731866E-03
               4.2228750081990077E-04
               1.8003114969877891E-04
               8.1563243486080621E-03
              -8.2432807187508578E-03
               3.5927110131162001E-03
               2.3108220694053033E-04
              -2.3193493213751531E-03
              -2.2745416288330361E-03
               1.6487393668452421E-03
               2.9317576028792271E-03
               7.2742360009190573E-03
               1.7878884195419561E-03
              -2.3132382741709603E-03
              -4.3319632998346062E-03
               2.9816631158382399E-03
               1.4662740157251064E-03
               2.8948579894503461E-04
              -7.3565056391438255E-04
              -2.7826489707969077E-03
               2.2029093566575020E-03
               1.6164744721533996E-03
              -3.8099370519016444E-04
              -1.8876341546151521E-03
              -4.0638128015291269E-03
               4.0952149644398706E-03
              -1.7123277054239623E-03
               2.9593632088579336E-03
               2.0170831397028363E-03
              -2.2276181461862686E-03
              -4.7007954872285127E-04
              -4.1925104372315530E-03
               1.6522433450457919E-03
               2.8155956949413160E-03
               2.1940555208336062E-03
               9.9566918265351452E-04
               1.2471322035833106E-03
              -1.6147797309536765E-03
              -2.6705051348447223E-03
               1.1585297650594598E-04
               3.0581459489080953E-03
               5.7348185258496139E-03
              -1.6703318655023399E-03
               1.5554623357493277E-03
               2.9092740467844295E-03
               1.1637315896472354E-03
               2.7134158652214629E-03
               4.4375026838466480E-03
               2.2594313296784354E-04
               3.5567701586458400E-04
               1.9686958913503090E-03
               9.0589219131824244E-04
              -7.2538308628555175E-04
               1.2469545971354361E-03
               1.0365331210989172E-03
              -2.4483649948348471E-03
               1.7256508211628647E-03
              -4.7917010501210191E-03
               8.8020547446083402E-04
               2.8032126255394477E-03
              -5.0876236074898825E-04
               5.1834098739032552E-03
              -2.9946464651568407E-03
               1.2745348068403377E-03
              -2.1441520910625675E-03
               3.5734965386498593E-03
              -1.3893044125106975E-03
              -5.3801554504875997E-03
               3.3260612991808281E-03
              -3.5518353068726407E-03
               8.5067840152275882E-03
               3.2553862707048924E-03
              -1.9405922697766725E-04
               1.4510183082396047E-03
               8.4394621617541171E-03
              -3.7831083314481087E-04
              -1.0875729771722234E-02
               6.0108008425587727E-04
              -3.7262008457184899E-03
              -1.2208360812822148E-03
               1.0967954410163925E-03
              -2.2609188958525764E-03
              -2.3578276934331042E-03
               4.7519981748687153E-03
              -4.5840927263819196E-03
              -6.7520085362963314E-03
               1.2601799243012509E-03
               2.5120436321746740E-03
               1.4237670505262655E-03
               2.3630045112300116E-03
              -3.5720894060546939E-03
              -2.8529679728449978E-03
              -4.5404767129191578E-04
              -3.1492356612060585E-03
               7.3906444198995613E-03
              -9.5253225409400503E-04
               6.1495997725764667E-03
              -1.5780366715582043E-03
               5.9737530004233552E-04
               3.0182685582970563E-03
              -5.5739182049333209E-04
              -6.2873755411077684E-03
               1.0281005284522842E-03
               4.0593713254858874E-03
               4.1076140816485975E-03
               4.7250262936384226E-04
               1.0489303734487033E-04
              -3.2538835515519516E-03
              -2.8653095158192822E-03
               3.4595828217069391E-03
               5.8703376700190973E-03
               1.9758401411455713E-03
              -5.4045696974429807E-03
              -1.6150467463258095E-03
               2.1226567160595421E-03
              -7.4478208695688101E-03
              -3.2321116362304188E-03
               2.2544708838577112E-03
               7.7639583302997902E-04
               2.8682864401859912E-05
              -3.4884307420795233E-04
              -5.4195500836536322E-03
              -1.1163392192330458E-03
               5.1287162099201622E-03
              -2.8656003477626354E-03
               1.2417398840827761E-03
              -7.3709517559912151E-04
              -8.6268371052090735E-04
               8.3116118940662793E-04
              -2.2047453934043127E-03
              -8.9227228316223536E-04
               6.5366888428370750E-04
               4.8939912686995699E-04
              -2.4683811769515390E-04
               2.0024680349086583E-03
              -5.0849731329738242E-03
               1.3992878240023787E-05
               7.2809501998039785E-03
              -6.8590104984652582E-04
              -1.9523134596009482E-03
              -3.3232753364815380E-03
              -2.7365799105797816E-03
               4.0859675129409851E-03
               3.5360047296393786E-03
               2.7971997848632896E-04
              -1.3045565381291594E-03
              -1.0648249094483691E-03
              -3.6088801544786642E-04
               8.9491634952284654E-03
              -2.3447562942222927E-03
              -2.5773821508617185E-03
               2.5494812386443405E-03
               3.7027784965985946E-03
               6.8438186498217309E-03
               4.9968726337350534E-03
              -1.8793019375027713E-03
              -2.2813677927210462E-03
              -7.5437366164893445E-04
              -3.0870241742066871E-03
              -7.5593715959970786E-03
               4.4744159769804330E-03
              -2.0852205593825218E-04
              -9.1209095870420126E-04
              -3.1026797942814905E-03
               1.7287045802110235E-03
              -2.9886119715562304E-03
               1.2289420128832012E-03
               1.7448133029140099E-03
              -2.5643141861319575E-04
               3.9931295356058841E-03
              -3.0017894127291273E-03
              -5.1906542230539289E-04
               5.3983183868049232E-03
               5.0707553910931931E-03
              -4.0327029073284207E-03
              -2.6205027298045022E-03
              -9.9763618638170964E-04
               2.9036041326326524E-03
              -3.0514059593835952E-03
              -4.6741492345436081E-04
               3.1876628280363716E-03
              -6.6516196423183353E-04
              -1.1389867852726662E-03
               5.1067595814280079E-03
              -9.0320980554483481E-04
               1.1069266187072339E-03
              -6.3091027496745763E-03
               1.6031575649394186E-03
              -1.3243551085116904E-04
               7.6376255978846870E-04
               1.7593954805160653E-03
               3.2912479544942174E-03
               4.8592766788279707E-04
              -1.3654106817630432E-03
              -5.1294332649264420E-03
              -4.0386250840944897E-03
               4.8234420866019650E-03
               2.0522905055942332E-05
              -1.5593456596407827E-04
               2.0763532487295968E-03
              -1.4625265402862248E-03
              -4.6115694150039507E-03
               2.8510929103299399E-03
              -7.4746737596755068E-03
               6.6997960395092379E-03
               6.1981985484249403E-03
               4.6543136383670808E-03
               2.0644921157942308E-03
               5.9759094138180958E-04
              -1.1522546542351907E-03
              -8.2875590083408279E-03
               6.1561874873388555E-03
              -3.3078573317829457E-03
              -7.1318597074774143E-03
               1.9352305981047706E-03
               4.2665473287667845E-03
               2.3431742115195627E-03
               2.2049754332129383E-03
               3.2905867815782456E-03
               5.4509407494560916E-04
              -2.7408258031867325E-03
              -7.7299373351094993E-03
               4.5709316954870701E-03
               2.3839091856461092E-03
              -2.0524763635331993E-03
               3.5584706294081556E-03
               4.8693027037424513E-03
              -4.5925113863105075E-03
              -7.5832801266002381E-04
               1.2450402088982539E-03
               2.9859865295004929E-03
              -2.2994979308834929E-03
              -3.4305503424123312E-03
               3.7359252264727920E-04
               1.3665426912134342E-04
               1.3983774609681407E-04
               4.4598212812654303E-03
               4.2650219219147493E-03
              -3.6674314282390363E-03
              -2.7089224636802564E-03
               1.1096599220845589E-03
              -5.4366029745967354E-03
               2.9394358145497165E-03
               1.5166549329833701E-04
              -1.8167229990093592E-04
               1.0397683413412384E-03
               2.2599397170211337E-03
               1.0938941828087759E-04
               1.2363532061804101E-03
              -3.1455939501926535E-04
              -3.3443785923288564E-03
               8.5069638695304097E-04
               2.9019639380173639E-03
              -1.3293941738946589E-03
              -2.8209287183628673E-03
               2.2059116817191088E-03
               6.6600062358856014E-03
               3.6823744942118103E-03
              -9.5408515252651416E-03
              -2.6961927590311435E-03
              -4.5054652818046271E-04
              -5.5515742825428850E-04
              -1.9254945469672925E-03
              -8.3224866611418067E-03
               3.7291585562510221E-04
              -3.8308145960996322E-04
               8.0494517721022060E-03
               1.6419515161536832E-03
               5.1056953740545559E-03
              -2.8822141430449297E-04
              -1.4631301074111340E-03
               1.8496754565325013E-03
              -6.2178160740091360E-04
               6.8001227858021703E-03
              -7.2461308313740069E-03
              -3.5492611410716710E-03
               5.6030506252838404E-03
              -6.0975938595941304E-03
               9.5573400589742639E-04
              -4.9860309164220266E-03
              -3.2806645019055917E-03
              -2.8789146492983692E-03
               3.3845996322877138E-03
              -2.1176604171317848E-03
               1.8176656536580164E-03
               9.1893143385277723E-03
              -2.8754636532984925E-03
         &END THERMOSTAT_ENERGY
         &RNG_INIT
Wiener process for Thermostat # 1        1 F T T  -1.5505429657892764E+00         661802595.0        2026459976.0        3136775027.0        3268219721.0        1056216878.0        3744216088.0             12345.0             12345.0             12345.0             12345.0             12345.0             12345.0             12345.0             12345.0             12345.0             12345.0             12345.0             12345.0
Wiener process for Thermostat # 2        1 F T T   1.5766939834860993E-01        2521559082.0        1979391111.0        3972826820.0        2839528192.0        3960449033.0        3051881342.0        3692455944.0        1366884236.0        2968912127.0         335948734.0        4161675175.0         475798818.0        3692455944.0        1366884236.0        2968912127.0         335948734.0        4161675175.0         475798818.0
Wiener process for Thermostat # 3        1 F T T  -1.6802103653762466E+00        2464096834.0        3454226368.0         668358963.0        3607867155.0        2139338144.0        1695442074.0        1015873554.0        1310354410.0        2249465273.0         994084013.0        2912484720.0        3876682925.0        1015873554.0        1310354410.0        2249465273.0         994084013.0        2912484720.0        3876682925.0
Wiener process for Thermostat # 4        1 F T T  -9.2120442907176847E-01        3007810664.0         626544053.0           5688727.0        2019501767.0        4050809287.0        2188826537.0        2338701263.0        1119171942.0        2570676563.0         317077452.0        3194180850.0         618832124.0        2338701263.0        1119171942.0        2570676563.0         317077452.0        3194180850.0         618832124.0
Wiener process for Thermostat # 5        1 F T T   1.9586792436148486E+00        3119398129.0        2238966874.0        1731687009.0        1729823850.0        3912388439.0         182524877.0        1597262096.0        3906379055.0        3312112953.0        1016013135.0        4099474108.0         275305423.0        1597262096.0        3906379055.0        3312112953.0        1016013135.0        4099474108.0         275305423.0
Wiener process for Thermostat # 6        1 F T T  -2.2012851380256623E-01         527820745.0        2447393615.0         338698828.0         653439858.0         976211817.0        3944196308.0          97147054.0        3131372450.0         829345164.0        3691032523.0        3006063034.0        4259826321.0          97147054.0        3131372450.0         829345164.0        3691032523.0        3006063034.0        4259826321.0
Wiener process for Thermostat # 7        1 F T T  -1.2191095662093037E-02         167278661.0        2992638024.0        1197931920.0         124710794.0         889033703.0        2194094787.0         796079799.0        2105258207.0         955365076.0        2923159030.0        4116632677.0        3067683584.0         796079799.0        2105258207.0         955365076.0        2923159030.0        4116632677.0        3067683584.0
Wiener process for Thermostat # 8        1 F T T  -2.6373530393371375E-01        2923147749.0        3809475671.0         892364519.0        3114385888.0        3523415917.0        3402922821.0        3281794178.0        2616230133.0        1457051261.0        2762791137.0        2480527362.0        2282316169.0        3281794178.0        2616230133.0        1457051261.0        2762791137.0        2480527362.0        2282316169.0
Wiener process for Thermostat # 9        1 F T T  -1.2388913960989989E+00         276694386.0        3384434371.0        2194062143.0        3864498526.0        2498625561.0        4174179731.0        3777646647.0        1837464056.0        4204654757.0         664239048.0        4190510072.0        2959195122.0        3777646647.0        1837464056.0        4204654757.0         664239048.0        4190510072.0        2959195122.0
Wiener process for Thermostat # 10       1 F T T  -6.9271884074884071E-01         298842605.0        4183294382.0        3769908432.0        1623977651.0        3452521187.0         349927101.0        4215590817.0        3862461878.0        1087200967.0        1544910132.0         936383720.0        1611370123.0        4215590817.0        3862461878.0        1087200967.0        1544910132.0         936383720.0        1611370123.0
Wiener process for Thermostat # 11       1 F T T  -3.9199517781213300E-01        1183014876.0        2469777470.0        2706060047.0        1374668043.0         490283634.0         131761905.0        1683636369.0         362165168.0         814316280.0         869382050.0         980203903.0        2062101717.0        1683636369.0         362165168.0         814316280.0         869382050.0         980203903.0        2062101717.0
Wiener process for Thermostat # 12       1 F T T   1.2248374085476998E+00         744312290.0        1838623065.0        1895433531.0        2930723882.0        3034111406.0        1223209339.0         272317999.0         166758548.0         310112982.0         201045826.0        1680231254.0         118290799.0         272317999.0         166758548.0         310112982.0         201045826.0        1680231254.0         118290799.0
Wiener process for Thermostat # 13       1 F T T   1.6053528300026945E-02         341235087.0         365462780.0         607175623.0        3292057964.0        1611524565.0         256574977.0        2245755202.0        1652682525.0        2865544364.0         721509566.0         209733568.0         592362218.0        2245755202.0        1652682525.0        2865544364.0         721509566.0         209733568.0         592362218.0