 # Version information for this restart file 
 # current date 2023-12-06 14:57:31.175
 # current working dir /scratch/work/courses/CHEM-GA-2671-2023fa/students/tje3676/comp-lab-class/Week12/Runs/Proton
 # Program compiled at                              Sat Dec 12 18:27:15 EST 2020
 # Program compiled on                                         cs001.nyu.cluster
 # Program compiled for                                                nyu-intel
 # Source code revision number                                       git:8c64c6e
 &GLOBAL
   PRINT_LEVEL  LOW
   PROJECT_NAME proton_aimd_1ps_every0.5fs
   RUN_TYPE  MD
   WALLTIME 21600
 &END GLOBAL
 &MOTION
   &GEO_OPT
     OPTIMIZER  BFGS
     MAX_ITER  100
     MAX_DR     3.0000000000000001E-03
     &BFGS
     &END BFGS
   &END GEO_OPT
   &MD
     ENSEMBLE  NVT
     STEPS  2000
     TIMESTEP     4.9999999999999994E-01
     STEP_START_VAL  1999
     TIME_START_VAL     9.9949999999998238E+02
     ECONS_START_VAL    -1.1027786089125343E+03
     TEMPERATURE     3.0000000000000000E+02
     &THERMOSTAT
       TYPE  GLE
       REGION  MASSIVE
       &GLE
         NDIM  5
         A_SCALE     1.0000000000000000E+00
         A_LIST     1.8595758612559999E+02    2.7263853498399998E-01    1.1526100454610001E+01   -3.6414578262600003E+01 \
             2.3173375816020001E+02
         A_LIST    -2.7809524712060002E-01    8.5951591808710006E-05    7.2189048017650004E-01   -1.9844539343859999E-01 \
             4.2409257583420001E-01
         A_LIST    -1.4825808131210000E+01   -7.2189048017650004E-01    1.3590902121280000E+00    5.1498896280349999E+00 \
            -9.9949268450990001E+00
         A_LIST    -1.0372189126880000E+01    1.9844539343859999E-01   -5.1498896280349999E+00    2.6661910891169999E+01 \
             1.1507715495310000E+01
         A_LIST     2.1801346360420001E+02   -4.2409257583420001E-01    9.9949268450990001E+00   -1.1507715495310000E+01 \
             3.0958394565589998E+02
         &THERMOSTAT_ENERGY
               2.5387610506648972E-03
               5.3547673242984985E-04
              -1.1311623530678191E-03
              -2.8114548405232405E-04
              -9.5731960344560812E-03
               2.3781927931019013E-03
              -2.8817794289807430E-03
              -3.2306734923804046E-03
               5.2523294732043386E-03
               4.2741495938859175E-03
               9.5285166513030158E-03
               4.9061405115957094E-04
               2.1221258175674164E-03
              -1.0231305450613171E-02
               4.1947646412658400E-03
              -1.0402843775028699E-02
               4.3212113740473523E-03
              -3.7925545012760880E-03
              -7.3820830799867319E-05
              -4.7543378218312723E-04
               1.7044512663483070E-03
               1.5043648781272777E-02
              -1.0727180293320444E-02
              -1.0092771491052144E-02
              -5.2899831661776019E-03
               6.0146021108103465E-04
               1.5724153863324597E-03
              -2.8658076011342602E-03
              -2.5113669371303222E-03
               6.8206710852287125E-03
              -5.6520841874323621E-03
              -1.5344039805827710E-03
               8.7556279831880416E-03
               1.8036064421409587E-03
              -1.1433463621330000E-03
               9.7609092603971031E-03
               1.9526196257611842E-03
              -4.4870192090378513E-03
              -3.8125343049689770E-04
              -1.5899569555419474E-03
               7.0104812048516181E-03
              -1.1347930680556598E-02
               3.2429570077101020E-03
               6.6264930762593346E-03
              -1.2831631800042807E-03
               3.1509513124608223E-03
              -1.0133331586483860E-02
               2.0460282100641788E-03
               3.6454840981641574E-03
               4.8200021176561551E-03
               1.9374731570570667E-03
               1.0001770640595117E-03
              -8.9981295084914266E-03
              -4.6387940699607281E-03
              -5.3101024595736323E-03
               7.0015291988047464E-04
              -1.2546683042391035E-03
              -3.9220587816898812E-03
               3.5024251242178170E-03
               1.6658272682845256E-03
              -1.4420994115914468E-03
              -6.5626849523511539E-05
               1.4832693175289352E-02
              -4.2611683608343928E-03
               9.7216441282740318E-03
               5.1779705872599712E-03
              -1.6575390816308368E-03
               4.8822760858518955E-03
               6.8298110857743519E-03
              -6.7162276183623752E-03
              -6.2585256405148816E-03
              -5.8137386329586210E-03
              -6.6158641359867479E-03
               9.9104409024178882E-04
              -4.4426718435756577E-03
              -1.0871778707156067E-02
               6.7682976025470222E-03
              -3.9201443366531047E-04
               6.9141039328734655E-03
               3.5489854297362757E-04
               5.2727645722034106E-03
              -4.2321569703793862E-03
               2.5630816174074967E-03
               1.7928030146204773E-03
               2.5075037941648675E-03
               6.1889978691402180E-03
              -7.4243530181777103E-04
               8.8660905273930778E-05
               6.5135554426532752E-04
              -8.4598960789907304E-03
               4.4065135310477135E-03
              -8.4568096278661332E-03
               2.4040427085213413E-03
              -4.2179330791321306E-03
              -4.8232127006507747E-03
               1.0720962614200663E-02
               1.5485860369690277E-03
               3.8301014519355626E-03
               4.2551397311500708E-03
               3.9314407295561304E-03
              -1.3616016282063418E-03
              -5.9326236556710085E-03
               3.9500009090502365E-03
               9.2525020434111572E-04
              -4.3960548436915311E-04
               8.6731044101883790E-03
               7.9690400264024967E-03
              -4.4503910602016238E-03
               6.8829712187976396E-03
              -1.3063972038644591E-03
               7.3986059389097292E-04
               7.6901535507019111E-03
              -5.0597203572426601E-03
               1.5718386176010884E-02
              -1.8664404834326379E-03
              -3.5690746449163168E-04
               2.0805628864072495E-03
               4.3699253532927477E-03
               1.0691628434868821E-03
               3.4580905934671379E-03
              -7.4873092442913833E-03
               4.7408540947332213E-03
               9.4601561757632190E-03
              -3.5071032101400574E-03
              -6.0063940405849815E-03
              -7.1331200087703210E-03
               4.7178072108463318E-03
              -4.9819383346815073E-03
               9.6975321789234334E-03
              -7.9653642292936023E-03
              -6.3193912815044757E-03
               1.1680131507380712E-02
              -1.6024275538797559E-04
               9.2507877406900092E-03
              -1.4891025238795669E-03
               6.4090919993805276E-03
              -2.8912044218586883E-03
              -1.1005534984155333E-02
               7.7499397954502026E-04
              -4.3899873031976022E-03
               4.7977863927488335E-03
               9.0577063305459921E-03
               7.7240151717264990E-04
              -1.2133134548069596E-03
              -5.7392676940576735E-03
              -3.4714202067986986E-03
               1.2340109118411350E-02
              -3.7337319145671775E-04
               4.0132298493788068E-04
               1.6596358267134382E-03
              -2.0323789678533748E-02
               1.2227127266270763E-02
              -1.1735525630230230E-03
               4.3596542214299999E-04
               6.0595064775580982E-03
              -1.4936335774953669E-03
               4.2860184814658420E-03
               2.7104397977955864E-03
              -6.9559931198668306E-03
               4.7053494317773050E-03
               4.6313025467227098E-04
              -5.8518470827183255E-03
              -6.3344186581001825E-03
               2.1640674419864487E-03
               1.3711322810270377E-02
               7.1318821472935723E-03
               8.6850202619293149E-03
              -1.6511105469803288E-02
               1.9533720548259165E-03
               2.6723042186041529E-03
              -2.4763995715270924E-03
               1.3697955613140506E-03
              -3.4135438907258518E-03
              -5.6021243926888528E-03
               3.5167737423475225E-02
              -1.2538606982294821E-02
               5.5730426363648968E-03
              -2.3143390811765849E-03
               9.7463265969245320E-03
              -1.8667659465618142E-03
               9.6874262176600071E-03
              -3.1688842421991725E-03
               3.9876530062440164E-02
              -4.0778520777512333E-03
              -8.1246571228962470E-04
              -3.3145941495949026E-04
               6.9969055741527378E-03
               2.5709531837186344E-03
              -1.1525839853296631E-02
              -2.4558075023427190E-03
               2.7406017028455210E-03
               5.2923307490453913E-03
               3.6192164777288506E-03
              -3.8149895722185889E-03
               2.4771720590790508E-03
               9.2510454830028645E-03
              -3.3189850751842911E-03
              -7.0448390303524235E-03
              -8.3347945529667726E-03
               4.3996848650755356E-03
               1.8854294823544082E-03
               6.0768976056290776E-03
               3.5076178222362371E-04
               7.8486775221804812E-03
              -1.0881781050114564E-02
              -1.0545151972663095E-02
               3.7194493399930971E-03
               4.6843469409539214E-03
              -5.0113122798950043E-03
               5.6880097481745067E-03
              -1.7139320756084020E-07
               7.4999373961705240E-04
               3.5154617714292400E-03
               3.3326584359562286E-03
              -5.2472921674085104E-03
               5.8330425700177666E-03
              -7.9728196285648537E-03
               1.2783066732838085E-02
              -7.0253636903268354E-03
               5.1878699180700136E-03
               7.1706186324833887E-04
              -1.1407459929304287E-03
              -1.5289240298942014E-02
               1.1296192807106887E-02
               9.3403112428806865E-03
              -1.2191990925618994E-02
              -1.1631807359383114E-03
               1.7977968656943553E-03
               2.8556703498882068E-03
               2.0817146299361468E-03
              -5.6789021046109540E-03
               1.0463303320528581E-03
               1.1796973276504329E-02
              -5.3726139207080934E-04
              -7.9325659346379590E-04
              -5.4297110265860288E-03
               3.1200624726390831E-03
               8.7932662453395487E-04
               3.0695802416992124E-04
              -3.3006960873420395E-03
               4.4880832290848209E-03
               1.0051568183769781E-02
              -5.7474238338020784E-04
              -3.6695441535847346E-03
              -7.3389918352066005E-03
               6.3069529691646229E-03
              -1.7059778952356599E-03
               1.5904066389620768E-03
              -4.2800752639368563E-03
              -4.9808334815524633E-03
               1.1718517310905126E-02
              -5.5192797560816523E-03
              -9.6287209338107565E-03
              -5.1803154786293727E-03
               2.6404377340103471E-03
              -4.4422878864684122E-03
              -2.8226828248358246E-03
              -5.1010164625769113E-04
               1.5010867160557911E-03
              -3.5932223462841035E-03
               7.2733081019604679E-03
               8.4842422073855839E-03
               3.2624415329227698E-03
              -7.4522643969890841E-03
               6.3420862385379024E-03
              -7.1873744504394529E-03
              -7.1094051069218393E-04
               8.9909281072585463E-03
              -9.0854647766556345E-05
               5.5294718921959909E-03
               5.4256306970333927E-03
              -1.4471670977319774E-02
               1.4266147287843948E-02
               5.6561197124359551E-03
               2.3485436725335582E-03
               1.4542736235800013E-03
              -1.8867602087509955E-02
               1.2761001293503424E-02
              -3.2198190380627976E-05
               9.5757567402228183E-03
              -1.5916674556687486E-02
              -8.0924786315838305E-03
              -3.9769226912805822E-03
               8.5041117609543655E-03
              -4.9455104670048950E-03
              -5.9786572808014178E-03
               1.0347152468068849E-02
              -1.4324357376980764E-04
              -1.0050075194115694E-02
               7.2059256747102822E-04
               1.4487281642864990E-02
              -1.5097704599580368E-03
              -5.1607985569600235E-03
              -9.8578258885189240E-03
               5.9607159508978554E-03
               5.8872646876678364E-03
              -6.3319494040191930E-03
               1.9882359050361575E-02
               4.3708224985148716E-03
              -8.5919229686103032E-03
              -5.5356052283478234E-04
              -4.5655566311131584E-03
               3.5687547988367762E-03
               1.8642990759638395E-02
               6.8419735278992238E-03
              -7.2921897706869051E-03
               1.8635459319312985E-03
               1.0424594455455084E-02
              -3.3926321576250044E-05
               7.5334339431298979E-03
               1.2454377362737514E-03
              -2.3431392676498408E-03
               3.3583999169395839E-03
               2.8565743721753212E-04
              -4.3688511940957664E-03
               6.0730654759902705E-03
               1.0513147835212262E-04
              -5.5944956537149195E-03
              -1.5032462048301328E-02
              -7.8363759795122244E-03
               1.7122858886112475E-03
               7.1737564091951898E-03
               6.6292613232931986E-03
               7.1545231535990331E-03
              -8.1427010469035787E-03
               2.0926596682028915E-02
               3.8215744701251310E-04
               2.5428053220242176E-03
              -7.7224285052048946E-04
               6.5169047083142150E-03
              -1.3312493471383193E-02
               5.0330223367640002E-03
               3.6401141287981517E-03
              -3.6348687481411101E-03
               7.9034745013665548E-03
              -5.9008032923342467E-03
               5.3850639138463565E-04
               2.5593955178821359E-03
               5.8175981336756393E-03
              -8.0016222862064812E-04
              -1.2373444987583816E-02
              -2.5487172147135957E-03
               7.2348721848139522E-03
               2.6688906314431288E-03
               2.9797852731678121E-03
               8.1614740123589942E-03
               6.1118719494241865E-03
              -1.3509279937040292E-02
               1.4332760629645306E-02
              -2.9760741102923508E-03
              -2.5179617609164292E-03
               3.8874199734559695E-03
              -1.1707355480173052E-02
               6.1609045240777370E-03
              -6.5092041075906822E-03
              -4.2000531217168862E-03
               3.8532401681081324E-03
              -2.1294641857462276E-03
              -1.2398163117761414E-02
               6.5259101923624127E-03
               2.0286291968458232E-03
              -4.8379122898714304E-03
               1.9815859591356164E-02
               2.9690387778407261E-03
              -3.2091291219536080E-03
              -1.4656187623973685E-03
               1.4245032959569618E-02
               2.8653549903138729E-05
              -1.0476896194153908E-02
              -5.6860705982253344E-03
              -2.0552689243466928E-03
               8.8395358965943985E-03
               9.0855787270835041E-04
              -1.2322118668977892E-03
               3.6797690012061700E-03
               6.3116975903717044E-03
              -1.2584933801620141E-02
              -1.7205952561134098E-02
               1.7733504509014520E-03
               1.1665559532234589E-02
               4.9004778378962319E-03
               6.9770208001290208E-03
              -4.5898292487029681E-03
               4.2454929244715759E-05
              -1.2339774435666483E-02
              -1.7356085847266113E-04
               4.8466133409666547E-03
               1.5938536465149144E-03
              -6.1852106248207629E-03
               6.5955054383310240E-03
              -6.3171387232935396E-03
               6.4011884043084768E-03
              -1.0624753317846076E-04
              -6.2100641529373429E-03
               1.2330973557521841E-02
              -8.0829790937632677E-04
               5.3090623785105474E-03
              -7.3507916086668961E-03
              -7.9310781422818437E-04
               2.3616018901780866E-04
               2.2475921070026963E-03
               3.8775885323977630E-03
              -1.3949829622262452E-03
               7.7777685697121143E-04
               2.6100996866521065E-03
              -9.1057407924214438E-03
              -3.5434285016897851E-03
               6.1250471889742137E-03
              -1.4926437671296579E-03
               8.3718831493355492E-04
               4.8139774371591991E-03
              -1.1256569562574615E-03
              -3.7681236705125001E-03
               3.2021777370659105E-03
               7.6805220980886834E-03
               9.5656411918221892E-04
              -1.8133711380203831E-03
               1.4081112878167881E-03
              -7.6751028297000615E-04
               1.4935184142950977E-03
              -2.5405952271631053E-03
               8.2517585713037765E-03
              -3.1156015866351484E-03
              -1.0209458562389046E-02
               9.7545910048568701E-03
              -8.5956071280217650E-03
              -1.4505896699228242E-03
              -7.0935231081406067E-03
               1.5243576176015663E-03
               5.2548304414039534E-05
              -3.4859021259193239E-03
              -2.6183732712556783E-03
              -1.7335152232973654E-02
               1.7377608341043922E-02
               1.3346917953733576E-02
               4.4331526994758202E-03
              -6.8736268942157491E-03
              -2.8738708751997692E-03
              -7.7876396071374218E-03
              -5.7807582171210906E-03
               8.4019268878545057E-03
              -6.3017728306683971E-04
              -2.9226437162073295E-03
               5.5041374886881872E-03
               3.7541066280097964E-04
               6.2658946948184443E-03
               1.5776134019120428E-03
               5.7224620089151162E-03
               1.0693822546764722E-02
              -1.1598933958930210E-02
               7.2331220139330388E-04
              -8.6990314740286734E-03
               1.6794141823112639E-03
              -1.8962452085233834E-03
               3.3111345677755387E-03
              -4.8583213682307294E-03
              -1.5305991875821380E-02
              -1.8136714892994090E-02
               5.7275395524658251E-03
              -4.0163668316797975E-03
               1.7646877927320084E-02
               1.0893858456388189E-02
              -9.5702886963732279E-03
               3.7438972486848036E-03
               1.1892745311195101E-03
              -1.7512667163938739E-03
              -7.5696998362854845E-03
               1.6170794297723262E-03
               9.4480988783498150E-03
              -4.6671753650608366E-03
              -4.6123066194036465E-03
              -7.0700542126418834E-03
               1.3815678989205480E-03
              -7.3598606166672045E-04
              -3.1075518389955194E-03
               7.3352516720638769E-03
              -5.3906567031189044E-04
               2.2218974958257464E-03
               1.0808943402119398E-03
              -1.9624290145364527E-03
               9.4068795785538166E-04
              -1.1115114718831961E-03
               4.3270124244603973E-03
               7.5055415567735553E-03
              -2.8836138091227082E-03
              -3.8178543981066781E-03
              -1.5530630795566704E-03
               2.7254882166075339E-03
               3.4964529503222299E-03
              -1.8094818304479371E-03
               7.2810685972262935E-03
               3.0612889458770981E-03
               1.3606321908699821E-02
              -9.7069456276267316E-03
              -3.9129480979945884E-03
              -4.6535293174689013E-04
               4.3008755001036035E-03
              -6.7573429459709660E-03
               8.0982830173860730E-03
               7.5524620684736419E-03
               8.3542868500584484E-04
               6.6160770914476027E-03
              -1.7789516415123004E-02
               1.4476729552579025E-02
               2.6238096224044986E-03
              -1.2514924289242427E-02
              -4.3159916174399706E-03
               1.6794496895840023E-03
               9.7591091158902247E-03
               6.3558443568871564E-03
              -3.6778148773310843E-03
               6.7208093255542662E-03
              -2.1957622880715401E-03
              -8.8650370218053311E-03
               1.3197770745712951E-02
              -1.3464475268131633E-02
              -3.9514434351672952E-03
               1.8434681829369844E-03
               4.0157208347445343E-03
               4.6874192351761736E-04
              -2.1374506262084161E-02
               4.3897493411841071E-03
               1.3314874693884668E-02
              -9.0614733535608833E-04
               1.8309796105381222E-03
               2.8008804732183217E-03
              -2.3597717606165126E-03
              -3.9796031829528221E-03
               7.3438792558068976E-03
              -2.9519773448368391E-04
               3.3379943597478499E-03
               9.5788145058007361E-03
              -1.7216845350560572E-02
              -3.7064666148778993E-03
               6.8029542233132047E-03
               3.0854460403436734E-04
              -3.6687963301439087E-05
              -7.0981559445902783E-04
               3.0953431610076204E-03
               3.8719799299313682E-03
               2.5695855927364789E-03
              -1.0995329344053496E-03
              -6.8761295532364037E-03
               9.2956035867672207E-04
               2.3136725960319622E-03
              -6.4833173489666305E-03
               8.1444555094143476E-03
              -3.4300576052505214E-03
               3.6408206035730894E-03
              -5.0940305352565537E-03
              -7.4992878887059165E-03
              -3.8437536010001386E-03
              -3.7197425323819643E-04
              -3.2872936754149897E-03
              -3.2967654849575005E-03
              -1.8251557704083304E-03
              -7.9097285681197123E-03
               4.5380458777487939E-03
               1.3234630826395791E-02
              -1.3113798398277760E-03
               7.5199930335195190E-04
               5.7125872387100585E-03
              -1.4984227888696947E-03
               5.6065229476485916E-03
              -1.5057758408095873E-03
              -5.7472928875110510E-03
              -1.7000928221864826E-03
              -5.8275561663785613E-03
               4.5360666661954010E-03
              -6.3154145307834579E-04
              -4.7841018888428056E-03
               1.4651895766322276E-03
               2.7841764650160013E-04
              -6.3668894011822347E-03
              -2.7519869655115597E-03
               1.6547806329511309E-02
               1.7881210877017287E-02
               3.4087864880765462E-03
              -2.9836538926370495E-03
         &END THERMOSTAT_ENERGY
         &RNG_INIT
Wiener process for Thermostat # 1        1 F T T  -1.3877964172148927E+00        3819968671.0        1923139303.0        2505174482.0        1129753110.0        1102497896.0        2318485114.0             12345.0             12345.0             12345.0             12345.0             12345.0             12345.0             12345.0             12345.0             12345.0             12345.0             12345.0             12345.0
Wiener process for Thermostat # 2        1 F T T   5.9690975612399577E-01        1863048650.0        1167059563.0        4156553466.0        2659491592.0        2500563110.0        2967422577.0        3692455944.0        1366884236.0        2968912127.0         335948734.0        4161675175.0         475798818.0        3692455944.0        1366884236.0        2968912127.0         335948734.0        4161675175.0         475798818.0
Wiener process for Thermostat # 3        1 F T T  -1.9577134425325560E-01        2029679022.0        1992813296.0        1475024831.0        3744841000.0        4231717232.0        1872789393.0        1015873554.0        1310354410.0        2249465273.0         994084013.0        2912484720.0        3876682925.0        1015873554.0        1310354410.0        2249465273.0         994084013.0        2912484720.0        3876682925.0
Wiener process for Thermostat # 4        1 F T T  -5.5423907268054418E-01         972191078.0        3239779000.0        2283144792.0        4029872124.0        2868550739.0         388907277.0        2338701263.0        1119171942.0        2570676563.0         317077452.0        3194180850.0         618832124.0        2338701263.0        1119171942.0        2570676563.0         317077452.0        3194180850.0         618832124.0
Wiener process for Thermostat # 5        1 F T T  -3.6874052824979625E-01         246061856.0        2033992607.0        4208640487.0        3425480013.0        1713937449.0        3033523858.0        1597262096.0        3906379055.0        3312112953.0        1016013135.0        4099474108.0         275305423.0        1597262096.0        3906379055.0        3312112953.0        1016013135.0        4099474108.0         275305423.0
Wiener process for Thermostat # 6        1 F T T   5.7875332706651861E-01        4268450248.0        1240555256.0        2123119467.0         299173953.0        2368881629.0        2698044585.0          97147054.0        3131372450.0         829345164.0        3691032523.0        3006063034.0        4259826321.0          97147054.0        3131372450.0         829345164.0        3691032523.0        3006063034.0        4259826321.0
Wiener process for Thermostat # 7        1 F T T  -1.8983145396195047E+00        4260312323.0         705196258.0         937296972.0        1373994383.0        3179698350.0        3757299263.0         796079799.0        2105258207.0         955365076.0        2923159030.0        4116632677.0        3067683584.0         796079799.0        2105258207.0         955365076.0        2923159030.0        4116632677.0        3067683584.0
Wiener process for Thermostat # 8        1 F T T  -3.3116685260855833E-01        2351531572.0        3477839446.0        1021048571.0        1975906828.0        1893564842.0         777663015.0        3281794178.0        2616230133.0        1457051261.0        2762791137.0        2480527362.0        2282316169.0        3281794178.0        2616230133.0        1457051261.0        2762791137.0        2480527362.0        2282316169.0
Wiener process for Thermostat # 9        1 F T T   1.4386427466100791E+00        3265425123.0        2999969280.0        3048908474.0        1047403656.0         134736569.0        4209884843.0        3777646647.0        1837464056.0        4204654757.0         664239048.0        4190510072.0        2959195122.0        3777646647.0        1837464056.0        4204654757.0         664239048.0        4190510072.0        2959195122.0
Wiener process for Thermostat # 10       1 F T T  -2.3947144259907721E-01        2825100143.0        2025717467.0        3827127036.0        1422979577.0        1026966836.0        1481957392.0        4215590817.0        3862461878.0        1087200967.0        1544910132.0         936383720.0        1611370123.0        4215590817.0        3862461878.0        1087200967.0        1544910132.0         936383720.0        1611370123.0
Wiener process for Thermostat # 11       1 F T T   2.8146058156813852E-01        3161233422.0        2404453347.0        1673723662.0         906337025.0          73303549.0        1016746719.0        1683636369.0         362165168.0         814316280.0         869382050.0         980203903.0        2062101717.0        1683636369.0         362165168.0         814316280.0         869382050.0         980203903.0        2062101717.0
Wiener process for Thermostat # 12       1 F T T  -6.6211933450441895E-01         208754144.0        1983222026.0        1378772639.0         460703296.0         651350573.0        3898252829.0         272317999.0         166758548.0         310112982.0         201045826.0        1680231254.0         118290799.0         272317999.0         166758548.0         310112982.0         201045826.0        1680231254.0         118290799.0
Wiener process for Thermostat # 13       1 F T T   2.2418582236869027E-02         545702192.0         878923556.0         464381839.0        1267067492.0        3004786620.0        2258194530.0        2245755202.0        1652682525.0        2865544364.0         721509566.0         209733568.0         592362218.0        2245755202.0        1652682525.0        2865544364.0         721509566.0         209733568.0         592362218.0